Time,X-stress,Y-stress-5765,Z-stress-5765,XY-stress-5765,YZ-stress-5765,ZX-stress-5765,Effective Stress (v-m)-5765,Maximum Principal Stress-5765,Minimum Principal Stress-5765, X-strain-5765, Y-strain-5765, Z-strain-5765, XY-strain-5765, YZ-strain-5765, ZX-strain-5765, Effective Strain-5765
0.00000000000000000,0.00000000000000000,0.00000000000000000,0.00000000000000000,0.00000000000000000,0.00000000000000000,0.00000000000000000,0.00000000000000000,0.00000000000000000,0.00000000000000000,0.00000000000000000,0.00000000000000000,0.00000000000000000,0.00000000000000000,0.00000000000000000,0.00000000000000000,0.00000000000000000
100.00000000000000000,0.00000000000000000,0.00000000000000000,0.00000000000000000,0.00000000000000000,0.00000000000000000,0.00000000000000000,0.00000000000000000,0.00000000000000000,0.00000000000000000,0.00000000000000000,0.00000000000000000,0.00000000000000000,0.00000000000000000,0.00000000000000000,0.00000000000000000,0.00000000000000000
200.00000000000000000,0.00000000387000000,0.00000000388000000,0.00000000432000000,-0.00000000009870000,-0.00000000009780000,0.00000008150000000,0.00000014100000000,0.00000008560000000,-0.00000007740000000,-0.00000006200000000,-0.00000005340000000,0.00000021400000000,-0.00000006000000000,-0.00000005950000000,0.00004960000000000,0.00005720000000000
300.00000000000000000,-0.00000000755000000,-0.00000000759000000,-0.00000000835000000,0.00000000000930000,0.00000000071000000,0.00000020100000000,0.00000034800000000,0.00000019300000000,-0.00000020900000000,0.00000010500000000,0.00000008320000000,-0.00000038000000000,0.00000000566000000,0.00000043200000000,0.00012200000000000,0.00014100000000000
400.00000000000000000,0.00000001490000000,0.00000001530000000,0.00000001630000000,-0.00000000008000000,0.00000000232000000,0.00000032100000000,0.00000055600000000,0.00000033700000000,-0.00000030500000000,-0.00000023500000000,-0.00000000874000000,0.00000062400000000,-0.00000004870000000,0.00000141000000000,0.00019500000000000,0.00022500000000000
500.00000000000000000,-0.00000049200000000,-0.00000049100000000,-0.00000052800000000,-0.00000000034300000,0.00000000164000000,0.00000027100000000,0.00000047100000000,-0.00000023800000000,-0.00000078200000000,0.00000289000000000,0.00000349000000000,-0.00001870000000000,-0.00000020800000000,0.00000099900000000,0.00016500000000000,0.00019100000000000
600.00000000000000000,-0.00000009100000000,-0.00000008980000000,-0.00000009460000000,-0.00000000012900000,0.00000000767000000,0.00000028700000000,0.00000049700000000,0.00000019400000000,-0.00000038000000000,-0.00000026300000000,0.00000047000000000,-0.00000245000000000,-0.00000007840000000,0.00000466000000000,0.00017500000000000,0.00020200000000000
700.00000000000000000,-0.00000049700000000,-0.00000049500000000,-0.00000052900000000,-0.00000000048100000,0.00000000918000000,0.00000047000000000,0.00000081500000000,-0.00000004310000000,-0.00000098300000000,0.00000175000000000,0.00000347000000000,-0.00001760000000000,-0.00000029200000000,0.00000559000000000,0.00028600000000000,0.00033000000000000
800.00000000000000000,-0.00000110000000000,-0.00000110000000000,-0.00000118000000000,-0.00000000074600000,0.00000000881000000,0.00000060900000000,0.00000106000000000,-0.00000053100000000,-0.00000175000000000,0.00000672000000000,0.00000767000000000,-0.00004200000000000,-0.00000045400000000,0.00000536000000000,0.00037100000000000,0.00042900000000000
900.00000000000000000,-0.00000099500000000,-0.00000099100000000,-0.00000106000000000,-0.00000000060600000,0.00000000853000000,0.00000080300000000,0.00000139000000000,-0.00000022500000000,-0.00000183000000000,0.00000462000000000,0.00000691000000000,-0.00003640000000000,-0.00000036900000000,0.00000519000000000,0.00048800000000000,0.00056400000000000
1000.00000000000000000,-0.00000071500000000,-0.00000071200000000,-0.00000076200000000,-0.00000000063200000,0.00000001190000000,0.00000090900000000,0.00000158000000000,0.00000017100000000,-0.00000165000000000,0.00000319000000000,0.00000480000000000,-0.00002590000000000,-0.00000038400000000,0.00000725000000000,0.00055300000000000,0.00063900000000000
1100.00000000000000000,-0.00000078200000000,-0.00000077700000000,-0.00000083200000000,-0.00000000070600000,0.00000001240000000,0.00000093900000000,0.00000163000000000,0.00000013300000000,-0.00000175000000000,0.00000285000000000,0.00000546000000000,-0.00002780000000000,-0.00000042900000000,0.00000757000000000,0.00057100000000000,0.00066000000000000
1200.00000000000000000,-0.00000102000000000,-0.00000102000000000,-0.00000109000000000,-0.00000000077800000,0.00000001310000000,0.00000096500000000,0.00000167000000000,-0.00000008840000000,-0.00000202000000000,0.00000533000000000,0.00000708000000000,-0.00003790000000000,-0.00000047300000000,0.00000796000000000,0.00058700000000000,0.00067800000000000
1300.00000000000000000,-0.00000109000000000,-0.00000109000000000,-0.00000117000000000,-0.00000000071400000,0.00000001520000000,0.00000108000000000,0.00000187000000000,-0.00000005130000000,-0.00000221000000000,0.00000540000000000,0.00000757000000000,-0.00004030000000000,-0.00000043400000000,0.00000925000000000,0.00065500000000000,0.00075700000000000
1400.00000000000000000,-0.00000122000000000,-0.00000121000000000,-0.00000130000000000,-0.00000000074700000,0.00000001400000000,0.00000122000000000,0.00000212000000000,-0.00000003830000000,-0.00000248000000000,0.00000628000000000,0.00000851000000000,-0.00004530000000000,-0.00000045400000000,0.00000852000000000,0.00074200000000000,0.00085800000000000
1500.00000000000000000,-0.00000132000000000,-0.00000132000000000,-0.00000141000000000,-0.00000000101000000,0.00000001480000000,0.00000137000000000,0.00000237000000000,0.00000000243000000,-0.00000274000000000,0.00000544000000000,0.00000931000000000,-0.00004780000000000,-0.00000061500000000,0.00000902000000000,0.00083300000000000,0.00096200000000000
1600.00000000000000000,-0.00000141000000000,-0.00000141000000000,-0.00000151000000000,-0.00000000111000000,0.00000001820000000,0.00000162000000000,0.00000280000000000,0.00000016000000000,-0.00000308000000000,0.00000660000000000,0.00000987000000000,-0.00005180000000000,-0.00000067700000000,0.00001110000000000,0.00098400000000000,0.00114000000000000
1700.00000000000000000,-0.00000183000000000,-0.00000182000000000,-0.00000195000000000,-0.00000000154000000,0.00000002550000000,0.00000168000000000,0.00000291000000000,-0.00000020400000000,-0.00000357000000000,0.00000759000000000,0.00001260000000000,-0.00006590000000000,-0.00000093500000000,0.00001550000000000,0.00102000000000000,0.00118000000000000
1800.00000000000000000,-0.00000231000000000,-0.00000230000000000,-0.00000247000000000,-0.00000000157000000,0.00000002710000000,0.00000176000000000,0.00000305000000000,-0.00000063100000000,-0.00000415000000000,0.00001070000000000,0.00001610000000000,-0.00008470000000000,-0.00000095200000000,0.00001650000000000,0.00107000000000000,0.00124000000000000
1900.00000000000000000,-0.00000233000000000,-0.00000232000000000,-0.00000249000000000,-0.00000000166000000,0.00000002480000000,0.00000184000000000,0.00000320000000000,-0.00000056900000000,-0.00000426000000000,0.00001110000000000,0.00001640000000000,-0.00008580000000000,-0.00000101000000000,0.00001510000000000,0.00112000000000000,0.00130000000000000
2000.00000000000000000,-0.00000196000000000,-0.00000195000000000,-0.00000209000000000,-0.00000000155000000,0.00000002310000000,0.00000198000000000,0.00000342000000000,-0.00000004320000000,-0.00000400000000000,0.00000836000000000,0.00001370000000000,-0.00007090000000000,-0.00000094100000000,0.00001400000000000,0.00120000000000000,0.00139000000000000
2100.00000000000000000,-0.00000156000000000,-0.00000155000000000,-0.00000166000000000,-0.00000000125000000,0.00000002490000000,0.00000203000000000,0.00000351000000000,0.00000041400000000,-0.00000364000000000,0.00000632000000000,0.00001080000000000,-0.00005610000000000,-0.00000075900000000,0.00001510000000000,0.00123000000000000,0.00142000000000000
2200.00000000000000000,-0.00000175000000000,-0.00000174000000000,-0.00000187000000000,-0.00000000132000000,0.00000002720000000,0.00000211000000000,0.00000366000000000,0.00000030600000000,-0.00000392000000000,0.00000690000000000,0.00001230000000000,-0.00006300000000000,-0.00000080100000000,0.00001650000000000,0.00129000000000000,0.00149000000000000
2300.00000000000000000,-0.00000212000000000,-0.00000211000000000,-0.00000226000000000,-0.00000000167000000,0.00000003150000000,0.00000224000000000,0.00000388000000000,0.00000005030000000,-0.00000442000000000,0.00000920000000000,0.00001480000000000,-0.00007690000000000,-0.00000102000000000,0.00001920000000000,0.00136000000000000,0.00157000000000000
2400.00000000000000000,-0.00000273000000000,-0.00000271000000000,-0.00000291000000000,-0.00000000182000000,0.00000003560000000,0.00000249000000000,0.00000431000000000,-0.00000032800000000,-0.00000531000000000,0.00001160000000000,0.00001900000000000,-0.00009880000000000,-0.00000111000000000,0.00002160000000000,0.00151000000000000,0.00175000000000000
2500.00000000000000000,-0.00000310000000000,-0.00000309000000000,-0.00000331000000000,-0.00000000223000000,0.00000003540000000,0.00000261000000000,0.00000452000000000,-0.00000059400000000,-0.00000582000000000,0.00001450000000000,0.00002160000000000,-0.00011400000000000,-0.00000136000000000,0.00002160000000000,0.00159000000000000,0.00183000000000000
2600.00000000000000000,-0.00000325000000000,-0.00000324000000000,-0.00000347000000000,-0.00000000238000000,0.00000003690000000,0.00000281000000000,0.00000488000000000,-0.00000054400000000,-0.00000617000000000,0.00001390000000000,0.00002280000000000,-0.00011800000000000,-0.00000145000000000,0.00002240000000000,0.00171000000000000,0.00198000000000000
2700.00000000000000000,-0.00000288000000000,-0.00000286000000000,-0.00000307000000000,-0.00000000221000000,0.00000003650000000,0.00000291000000000,0.00000504000000000,-0.00000006590000000,-0.00000588000000000,0.00001270000000000,0.00002010000000000,-0.00010500000000000,-0.00000135000000000,0.00002220000000000,0.00177000000000000,0.00204000000000000
2800.00000000000000000,-0.00000281000000000,-0.00000280000000000,-0.00000300000000000,-0.00000000192000000,0.00000003800000000,0.00000287000000000,0.00000498000000000,-0.00000003200000000,-0.00000578000000000,0.00001060000000000,0.00001980000000000,-0.00010100000000000,-0.00000117000000000,0.00002310000000000,0.00175000000000000,0.00202000000000000
2900.00000000000000000,-0.00000277000000000,-0.00000276000000000,-0.00000296000000000,-0.00000000211000000,0.00000003850000000,0.00000285000000000,0.00000493000000000,-0.00000001600000000,-0.00000571000000000,0.00001210000000000,0.00001940000000000,-0.00010100000000000,-0.00000129000000000,0.00002340000000000,0.00173000000000000,0.00200000000000000
3000.00000000000000000,-0.00000297000000000,-0.00000295000000000,-0.00000316000000000,-0.00000000234000000,0.00000003970000000,0.00000297000000000,0.00000515000000000,-0.00000009320000000,-0.00000604000000000,0.00001180000000000,0.00002080000000000,-0.00010700000000000,-0.00000142000000000,0.00002410000000000,0.00181000000000000,0.00209000000000000
3100.00000000000000000,-0.00000321000000000,-0.00000320000000000,-0.00000343000000000,-0.00000000237000000,0.00000004120000000,0.00000315000000000,0.00000546000000000,-0.00000016700000000,-0.00000647000000000,0.00001400000000000,0.00002240000000000,-0.00011700000000000,-0.00000144000000000,0.00002500000000000,0.00192000000000000,0.00221000000000000
3200.00000000000000000,-0.00000349000000000,-0.00000347000000000,-0.00000372000000000,-0.00000000258000000,0.00000004490000000,0.00000336000000000,0.00000582000000000,-0.00000024400000000,-0.00000696000000000,0.00001330000000000,0.00002450000000000,-0.00012500000000000,-0.00000157000000000,0.00002730000000000,0.00204000000000000,0.00236000000000000
3300.00000000000000000,-0.00000371000000000,-0.00000369000000000,-0.00000396000000000,-0.00000000280000000,0.00000004660000000,0.00000366000000000,0.00000635000000000,-0.00000017100000000,-0.00000750000000000,0.00001580000000000,0.00002590000000000,-0.00013500000000000,-0.00000170000000000,0.00002830000000000,0.00223000000000000,0.00257000000000000
3400.00000000000000000,-0.00000404000000000,-0.00000402000000000,-0.00000431000000000,-0.00000000308000000,0.00000005200000000,0.00000373000000000,0.00000646000000000,-0.00000044500000000,-0.00000791000000000,0.00001620000000000,0.00002830000000000,-0.00014500000000000,-0.00000187000000000,0.00003160000000000,0.00227000000000000,0.00262000000000000
3500.00000000000000000,-0.00000423000000000,-0.00000421000000000,-0.00000451000000000,-0.00000000323000000,0.00000005370000000,0.00000377000000000,0.00000654000000000,-0.00000059700000000,-0.00000815000000000,0.00001800000000000,0.00002950000000000,-0.00015300000000000,-0.00000196000000000,0.00003270000000000,0.00229000000000000,0.00265000000000000
3600.00000000000000000,-0.00000406000000000,-0.00000404000000000,-0.00000433000000000,-0.00000000305000000,0.00000005380000000,0.00000374000000000,0.00000648000000000,-0.00000045300000000,-0.00000793000000000,0.00001620000000000,0.00002840000000000,-0.00014600000000000,-0.00000186000000000,0.00003270000000000,0.00227000000000000,0.00263000000000000
3700.00000000000000000,-0.00000379000000000,-0.00000377000000000,-0.00000404000000000,-0.00000000294000000,0.00000005170000000,0.00000385000000000,0.00000668000000000,-0.00000005840000000,-0.00000777000000000,0.00001460000000000,0.00002650000000000,-0.00013600000000000,-0.00000179000000000,0.00003140000000000,0.00234000000000000,0.00271000000000000
3800.00000000000000000,-0.00000358000000000,-0.00000356000000000,-0.00000381000000000,-0.00000000278000000,0.00000005020000000,0.00000388000000000,0.00000673000000000,0.00000018600000000,-0.00000758000000000,0.00001340000000000,0.00002510000000000,-0.00012800000000000,-0.00000169000000000,0.00003050000000000,0.00236000000000000,0.00273000000000000
3900.00000000000000000,-0.00000373000000000,-0.00000371000000000,-0.00000397000000000,-0.00000000303000000,0.00000005130000000,0.00000405000000000,0.00000703000000000,0.00000020600000000,-0.00000791000000000,0.00001410000000000,0.00002620000000000,-0.00013300000000000,-0.00000184000000000,0.00003120000000000,0.00247000000000000,0.00285000000000000
4000.00000000000000000,-0.00000422000000000,-0.00000420000000000,-0.00000450000000000,-0.00000000328000000,0.00000005620000000,0.00000425000000000,0.00000737000000000,-0.00000010800000000,-0.00000862000000000,0.00001690000000000,0.00002950000000000,-0.00015200000000000,-0.00000199000000000,0.00003420000000000,0.00259000000000000,0.00299000000000000
4100.00000000000000000,-0.00000491000000000,-0.00000488000000000,-0.00000523000000000,-0.00000000365000000,0.00000006110000000,0.00000453000000000,0.00000785000000000,-0.00000054000000000,-0.00000960000000000,0.00001920000000000,0.00003430000000000,-0.00017600000000000,-0.00000222000000000,0.00003720000000000,0.00275000000000000,0.00318000000000000
4200.00000000000000000,-0.00000539000000000,-0.00000537000000000,-0.00000575000000000,-0.00000000395000000,0.00000006500000000,0.00000460000000000,0.00000797000000000,-0.00000097200000000,-0.00001020000000000,0.00002260000000000,0.00003760000000000,-0.00019500000000000,-0.00000240000000000,0.00003950000000000,0.00280000000000000,0.00323000000000000
4300.00000000000000000,-0.00000540000000000,-0.00000537000000000,-0.00000575000000000,-0.00000000397000000,0.00000006570000000,0.00000474000000000,0.00000823000000000,-0.00000083000000000,-0.00001030000000000,0.00002110000000000,0.00003780000000000,-0.00019400000000000,-0.00000241000000000,0.00003990000000000,0.00289000000000000,0.00334000000000000
4400.00000000000000000,-0.00000506000000000,-0.00000504000000000,-0.00000540000000000,-0.00000000377000000,0.00000006230000000,0.00000487000000000,0.00000845000000000,-0.00000035400000000,-0.00001010000000000,0.00002030000000000,0.00003530000000000,-0.00018200000000000,-0.00000229000000000,0.00003790000000000,0.00296000000000000,0.00343000000000000
4500.00000000000000000,-0.00000453000000000,-0.00000451000000000,-0.00000483000000000,-0.00000000342000000,0.00000006190000000,0.00000484000000000,0.00000839000000000,0.00000016500000000,-0.00000953000000000,0.00001600000000000,0.00003190000000000,-0.00016100000000000,-0.00000208000000000,0.00003760000000000,0.00295000000000000,0.00340000000000000
4600.00000000000000000,-0.00000446000000000,-0.00000444000000000,-0.00000475000000000,-0.00000000347000000,0.00000006420000000,0.00000476000000000,0.00000826000000000,0.00000015800000000,-0.00000937000000000,0.00001670000000000,0.00003110000000000,-0.00015900000000000,-0.00000211000000000,0.00003900000000000,0.00290000000000000,0.00335000000000000
4700.00000000000000000,-0.00000466000000000,-0.00000464000000000,-0.00000496000000000,-0.00000000366000000,0.00000006610000000,0.00000490000000000,0.00000849000000000,0.00000008660000000,-0.00000971000000000,0.00001640000000000,0.00003270000000000,-0.00016600000000000,-0.00000223000000000,0.00004020000000000,0.00298000000000000,0.00344000000000000
4800.00000000000000000,-0.00000529000000000,-0.00000526000000000,-0.00000564000000000,-0.00000000395000000,0.00000006960000000,0.00000513000000000,0.00000890000000000,-0.00000032800000000,-0.00001060000000000,0.00002100000000000,0.00003690000000000,-0.00019000000000000,-0.00000241000000000,0.00004240000000000,0.00312000000000000,0.00361000000000000
4900.00000000000000000,-0.00000583000000000,-0.00000580000000000,-0.00000621000000000,-0.00000000438000000,0.00000007260000000,0.00000537000000000,0.00000932000000000,-0.00000064600000000,-0.00001140000000000,0.00002120000000000,0.00004090000000000,-0.00020800000000000,-0.00000266000000000,0.00004420000000000,0.00327000000000000,0.00378000000000000
5000.00000000000000000,-0.00000619000000000,-0.00000616000000000,-0.00000659000000000,-0.00000000472000000,0.00000007500000000,0.00000560000000000,0.00000971000000000,-0.00000078600000000,-0.00001200000000000,0.00002390000000000,0.00004320000000000,-0.00022200000000000,-0.00000287000000000,0.00004560000000000,0.00341000000000000,0.00394000000000000
5100.00000000000000000,-0.00000621000000000,-0.00000617000000000,-0.00000661000000000,-0.00000000474000000,0.00000007740000000,0.00000574000000000,0.00000996000000000,-0.00000065900000000,-0.00001220000000000,0.00002270000000000,0.00004350000000000,-0.00022100000000000,-0.00000288000000000,0.00004710000000000,0.00349000000000000,0.00404000000000000
5200.00000000000000000,-0.00000610000000000,-0.00000606000000000,-0.00000649000000000,-0.00000000460000000,0.00000007700000000,0.00000577000000000,0.00001000000000000,-0.00000051700000000,-0.00001210000000000,0.00002350000000000,0.00004260000000000,-0.00021800000000000,-0.00000279000000000,0.00004680000000000,0.00351000000000000,0.00406000000000000
5300.00000000000000000,-0.00000581000000000,-0.00000578000000000,-0.00000618000000000,-0.00000000443000000,0.00000007820000000,0.00000569000000000,0.00000986000000000,-0.00000030100000000,-0.00001170000000000,0.00002030000000000,0.00004070000000000,-0.00020600000000000,-0.00000270000000000,0.00004750000000000,0.00346000000000000,0.00400000000000000
5400.00000000000000000,-0.00000559000000000,-0.00000556000000000,-0.00000595000000000,-0.00000000439000000,0.00000007740000000,0.00000571000000000,0.00000990000000000,-0.00000005100000000,-0.00001150000000000,0.00002010000000000,0.00003900000000000,-0.00019900000000000,-0.00000267000000000,0.00004710000000000,0.00347000000000000,0.00401000000000000
5500.00000000000000000,-0.00000565000000000,-0.00000562000000000,-0.00000601000000000,-0.00000000450000000,0.00000007760000000,0.00000580000000000,0.00001010000000000,-0.00000002480000000,-0.00001160000000000,0.00001930000000000,0.00003960000000000,-0.00020000000000000,-0.00000274000000000,0.00004720000000000,0.00353000000000000,0.00408000000000000
5600.00000000000000000,-0.00000585000000000,-0.00000582000000000,-0.00000622000000000,-0.00000000457000000,0.00000007870000000,0.00000602000000000,0.00001040000000000,-0.00000001800000000,-0.00001210000000000,0.00002040000000000,0.00004090000000000,-0.00020700000000000,-0.00000278000000000,0.00004790000000000,0.00366000000000000,0.00423000000000000
5700.00000000000000000,-0.00000639000000000,-0.00000635000000000,-0.00000680000000000,-0.00000000497000000,0.00000008350000000,0.00000630000000000,0.00001090000000000,-0.00000029400000000,-0.00001290000000000,0.00002220000000000,0.00004480000000000,-0.00022700000000000,-0.00000302000000000,0.00005080000000000,0.00383000000000000,0.00443000000000000
5800.00000000000000000,-0.00000706000000000,-0.00000702000000000,-0.00000751000000000,-0.00000000536000000,0.00000008680000000,0.00000655000000000,0.00001140000000000,-0.00000073200000000,-0.00001380000000000,0.00002530000000000,0.00004940000000000,-0.00025100000000000,-0.00000326000000000,0.00005280000000000,0.00398000000000000,0.00460000000000000
5900.00000000000000000,-0.00000752000000000,-0.00000747000000000,-0.00000800000000000,-0.00000000570000000,0.00000009130000000,0.00000662000000000,0.00001150000000000,-0.00000113000000000,-0.00001440000000000,0.00002770000000000,0.00005250000000000,-0.00026800000000000,-0.00000347000000000,0.00005550000000000,0.00403000000000000,0.00466000000000000
6000.00000000000000000,-0.00000747000000000,-0.00000743000000000,-0.00000795000000000,-0.00000000565000000,0.00000009210000000,0.00000666000000000,0.00001150000000000,-0.00000105000000000,-0.00001440000000000,0.00002740000000000,0.00005220000000000,-0.00026600000000000,-0.00000343000000000,0.00005600000000000,0.00405000000000000,0.00468000000000000
6100.00000000000000000,-0.00000703000000000,-0.00000699000000000,-0.00000748000000000,-0.00000000543000000,0.00000009030000000,0.00000668000000000,0.00001160000000000,-0.00000056700000000,-0.00001390000000000,0.00002450000000000,0.00004920000000000,-0.00024900000000000,-0.00000330000000000,0.00005490000000000,0.00406000000000000,0.00470000000000000
6200.00000000000000000,-0.00000652000000000,-0.00000648000000000,-0.00000694000000000,-0.00000000518000000,0.00000008760000000,0.00000670000000000,0.00001160000000000,-0.00000002760000000,-0.00001340000000000,0.00002140000000000,0.00004570000000000,-0.00023000000000000,-0.00000315000000000,0.00005330000000000,0.00407000000000000,0.00471000000000000
6300.00000000000000000,-0.00000625000000000,-0.00000621000000000,-0.00000664000000000,-0.00000000500000000,0.00000008720000000,0.00000670000000000,0.00001160000000000,0.00000025800000000,-0.00001310000000000,0.00002000000000000,0.00004380000000000,-0.00022000000000000,-0.00000304000000000,0.00005300000000000,0.00407000000000000,0.00471000000000000
6400.00000000000000000,-0.00000656000000000,-0.00000652000000000,-0.00000697000000000,-0.00000000517000000,0.00000009180000000,0.00000688000000000,0.00001190000000000,0.00000011600000000,-0.00001370000000000,0.00002040000000000,0.00004590000000000,-0.00023000000000000,-0.00000315000000000,0.00005580000000000,0.00418000000000000,0.00484000000000000
6500.00000000000000000,-0.00000713000000000,-0.00000709000000000,-0.00000758000000000,-0.00000000557000000,0.00000009580000000,0.00000713000000000,0.00001240000000000,-0.00000022100000000,-0.00001450000000000,0.00002440000000000,0.00004980000000000,-0.00025200000000000,-0.00000339000000000,0.00005830000000000,0.00434000000000000,0.00501000000000000
6600.00000000000000000,-0.00000806000000000,-0.00000801000000000,-0.00000857000000000,-0.00000000614000000,0.00000009800000000,0.00000741000000000,0.00001280000000000,-0.00000090400000000,-0.00001570000000000,0.00002780000000000,0.00005620000000000,-0.00028500000000000,-0.00000373000000000,0.00005960000000000,0.00450000000000000,0.00521000000000000
6700.00000000000000000,-0.00000853000000000,-0.00000848000000000,-0.00000908000000000,-0.00000000649000000,0.00000010100000000,0.00000756000000000,0.00001310000000000,-0.00000124000000000,-0.00001640000000000,0.00003070000000000,0.00005960000000000,-0.00030300000000000,-0.00000395000000000,0.00006170000000000,0.00460000000000000,0.00531000000000000
6800.00000000000000000,-0.00000854000000000,-0.00000849000000000,-0.00000909000000000,-0.00000000646000000,0.00000010100000000,0.00000772000000000,0.00001340000000000,-0.00000109000000000,-0.00001650000000000,0.00002890000000000,0.00005980000000000,-0.00030200000000000,-0.00000393000000000,0.00006160000000000,0.00469000000000000,0.00542000000000000
6900.00000000000000000,-0.00000800000000000,-0.00000796000000000,-0.00000851000000000,-0.00000000614000000,0.00000009890000000,0.00000775000000000,0.00001340000000000,-0.00000050700000000,-0.00001600000000000,0.00002670000000000,0.00005600000000000,-0.00028200000000000,-0.00000374000000000,0.00006020000000000,0.00471000000000000,0.00544000000000000
7000.00000000000000000,-0.00000756000000000,-0.00000751000000000,-0.00000803000000000,-0.00000000593000000,0.00000009810000000,0.00000764000000000,0.00001320000000000,-0.00000015100000000,-0.00001540000000000,0.00002330000000000,0.00005290000000000,-0.00026500000000000,-0.00000361000000000,0.00005970000000000,0.00464000000000000,0.00537000000000000
7100.00000000000000000,-0.00000736000000000,-0.00000732000000000,-0.00000783000000000,-0.00000000578000000,0.00000009920000000,0.00000759000000000,0.00001320000000000,0.00000000162000000,-0.00001520000000000,0.00002280000000000,0.00005150000000000,-0.00025800000000000,-0.00000351000000000,0.00006030000000000,0.00462000000000000,0.00534000000000000
7200.00000000000000000,-0.00000759000000000,-0.00000754000000000,-0.00000806000000000,-0.00000000577000000,0.00000010300000000,0.00000773000000000,0.00001340000000000,-0.00000008820000000,-0.00001560000000000,0.00002330000000000,0.00005310000000000,-0.00026600000000000,-0.00000351000000000,0.00006280000000000,0.00470000000000000,0.00543000000000000
7300.00000000000000000,-0.00000812000000000,-0.00000807000000000,-0.00000863000000000,-0.00000000637000000,0.00000010300000000,0.00000799000000000,0.00001380000000000,-0.00000038100000000,-0.00001640000000000,0.00002610000000000,0.00005670000000000,-0.00028500000000000,-0.00000387000000000,0.00006260000000000,0.00486000000000000,0.00561000000000000
7400.00000000000000000,-0.00000867000000000,-0.00000861000000000,-0.00000921000000000,-0.00000000670000000,0.00000010700000000,0.00000826000000000,0.00001430000000000,-0.00000067400000000,-0.00001720000000000,0.00002770000000000,0.00006060000000000,-0.00030500000000000,-0.00000408000000000,0.00006490000000000,0.00502000000000000,0.00581000000000000
7500.00000000000000000,-0.00000919000000000,-0.00000913000000000,-0.00000977000000000,-0.00000000709000000,0.00000011300000000,0.00000855000000000,0.00001480000000000,-0.00000092700000000,-0.00001800000000000,0.00002990000000000,0.00006430000000000,-0.00032400000000000,-0.00000431000000000,0.00006860000000000,0.00520000000000000,0.00601000000000000
7600.00000000000000000,-0.00000934000000000,-0.00000929000000000,-0.00000993000000000,-0.00000000731000000,0.00000011300000000,0.00000866000000000,0.00001500000000000,-0.00000097100000000,-0.00001830000000000,0.00003020000000000,0.00006530000000000,-0.00032900000000000,-0.00000444000000000,0.00006900000000000,0.00527000000000000,0.00609000000000000
7700.00000000000000000,-0.00000925000000000,-0.00000919000000000,-0.00000983000000000,-0.00000000730000000,0.00000011200000000,0.00000865000000000,0.00001500000000000,-0.00000088100000000,-0.00001820000000000,0.00002960000000000,0.00006460000000000,-0.00032500000000000,-0.00000444000000000,0.00006780000000000,0.00526000000000000,0.00608000000000000
7800.00000000000000000,-0.00000888000000000,-0.00000882000000000,-0.00000943000000000,-0.00000000691000000,0.00000011200000000,0.00000860000000000,0.00001490000000000,-0.00000054600000000,-0.00001780000000000,0.00002730000000000,0.00006200000000000,-0.00031100000000000,-0.00000420000000000,0.00006810000000000,0.00523000000000000,0.00605000000000000
7900.00000000000000000,-0.00000858000000000,-0.00000852000000000,-0.00000912000000000,-0.00000000680000000,0.00000011300000000,0.00000862000000000,0.00001490000000000,-0.00000022800000000,-0.00001750000000000,0.00002510000000000,0.00006010000000000,-0.00029900000000000,-0.00000413000000000,0.00006870000000000,0.00524000000000000,0.00605000000000000
8000.00000000000000000,-0.00000842000000000,-0.00000837000000000,-0.00000895000000000,-0.00000000670000000,0.00000010800000000,0.00000861000000000,0.00001490000000000,-0.00000006890000000,-0.00001730000000000,0.00002460000000000,0.00005900000000000,-0.00029400000000000,-0.00000407000000000,0.00006590000000000,0.00524000000000000,0.00605000000000000
8100.00000000000000000,-0.00000862000000000,-0.00000856000000000,-0.00000915000000000,-0.00000000691000000,0.00000011300000000,0.00000878000000000,0.00001520000000000,-0.00000010500000000,-0.00001770000000000,0.00002430000000000,0.00006030000000000,-0.00030000000000000,-0.00000420000000000,0.00006890000000000,0.00534000000000000,0.00617000000000000
8200.00000000000000000,-0.00000919000000000,-0.00000913000000000,-0.00000976000000000,-0.00000000729000000,0.00000011900000000,0.00000910000000000,0.00001580000000000,-0.00000037500000000,-0.00001860000000000,0.00002700000000000,0.00006420000000000,-0.00032100000000000,-0.00000443000000000,0.00007260000000000,0.00553000000000000,0.00639000000000000
8300.00000000000000000,-0.00000988000000000,-0.00000982000000000,-0.00001050000000000,-0.00000000773000000,0.00000011800000000,0.00000941000000000,0.00001630000000000,-0.00000077800000000,-0.00001960000000000,0.00003010000000000,0.00006920000000000,-0.00034600000000000,-0.00000470000000000,0.00007170000000000,0.00572000000000000,0.00661000000000000
8400.00000000000000000,-0.00001060000000000,-0.00001050000000000,-0.00001120000000000,-0.00000000827000000,0.00000012800000000,0.00000956000000000,0.00001660000000000,-0.00000134000000000,-0.00002050000000000,0.00003340000000000,0.00007390000000000,-0.00037100000000000,-0.00000503000000000,0.00007800000000000,0.00581000000000000,0.00672000000000000
8500.00000000000000000,-0.00001060000000000,-0.00001060000000000,-0.00001130000000000,-0.00000000826000000,0.00000013000000000,0.00000964000000000,0.00001670000000000,-0.00000134000000000,-0.00002060000000000,0.00003270000000000,0.00007440000000000,-0.00037300000000000,-0.00000502000000000,0.00007890000000000,0.00586000000000000,0.00678000000000000
8600.00000000000000000,-0.00001030000000000,-0.00001020000000000,-0.00001090000000000,-0.00000000807000000,0.00000011500000000,0.00000967000000000,0.00001680000000000,-0.00000092500000000,-0.00002030000000000,0.00003110000000000,0.00007170000000000,-0.00035900000000000,-0.00000491000000000,0.00007010000000000,0.00588000000000000,0.00679000000000000
8700.00000000000000000,-0.00000959000000000,-0.00000952000000000,-0.00001020000000000,-0.00000000770000000,0.00000013000000000,0.00000962000000000,0.00001670000000000,-0.00000025700000000,-0.00001950000000000,0.00002670000000000,0.00006710000000000,-0.00033300000000000,-0.00000468000000000,0.00007900000000000,0.00585000000000000,0.00676000000000000
8800.00000000000000000,-0.00000928000000000,-0.00000922000000000,-0.00000985000000000,-0.00000000719000000,0.00000012800000000,0.00000958000000000,0.00001660000000000,0.00000002070000000,-0.00001920000000000,0.00002460000000000,0.00006500000000000,-0.00032100000000000,-0.00000438000000000,0.00007810000000000,0.00583000000000000,0.00674000000000000
8900.00000000000000000,-0.00000933000000000,-0.00000926000000000,-0.00000990000000000,-0.00000000722000000,0.00000012200000000,0.00000968000000000,0.00001680000000000,0.00000007080000000,-0.00001930000000000,0.00002440000000000,0.00006530000000000,-0.00032200000000000,-0.00000439000000000,0.00007420000000000,0.00589000000000000,0.00680000000000000
9000.00000000000000000,-0.00000988000000000,-0.00000981000000000,-0.00001050000000000,-0.00000000773000000,0.00000013400000000,0.00000991000000000,0.00001720000000000,-0.00000026700000000,-0.00002010000000000,0.00002670000000000,0.00006910000000000,-0.00034200000000000,-0.00000470000000000,0.00008150000000000,0.00603000000000000,0.00697000000000000
9100.00000000000000000,-0.00001070000000000,-0.00001060000000000,-0.00001140000000000,-0.00000000820000000,0.00000013400000000,0.00001020000000000,0.00001770000000000,-0.00000082700000000,-0.00002130000000000,0.00003070000000000,0.00007490000000000,-0.00037300000000000,-0.00000498000000000,0.00008150000000000,0.00621000000000000,0.00718000000000000
9200.00000000000000000,-0.00001130000000000,-0.00001120000000000,-0.00001200000000000,-0.00000000854000000,0.00000014100000000,0.00001040000000000,0.00001800000000000,-0.00000127000000000,-0.00002210000000000,0.00003310000000000,0.00007920000000000,-0.00039500000000000,-0.00000520000000000,0.00008580000000000,0.00632000000000000,0.00731000000000000
9300.00000000000000000,-0.00001170000000000,-0.00001170000000000,-0.00001250000000000,-0.00000000902000000,0.00000013900000000,0.00001060000000000,0.00001840000000000,-0.00000150000000000,-0.00002270000000000,0.00003450000000000,0.00008220000000000,-0.00041000000000000,-0.00000549000000000,0.00008460000000000,0.00645000000000000,0.00745000000000000
9400.00000000000000000,-0.00001130000000000,-0.00001120000000000,-0.00001200000000000,-0.00000000897000000,0.00000014100000000,0.00001070000000000,0.00001850000000000,-0.00000094000000000,-0.00002230000000000,0.00003140000000000,0.00007880000000000,-0.00039200000000000,-0.00000546000000000,0.00008600000000000,0.00650000000000000,0.00751000000000000
9500.00000000000000000,-0.00001090000000000,-0.00001090000000000,-0.00001160000000000,-0.00000000899000000,0.00000014800000000,0.00001070000000000,0.00001850000000000,-0.00000061900000000,-0.00002190000000000,0.00002970000000000,0.00007650000000000,-0.00037900000000000,-0.00000547000000000,0.00009030000000000,0.00648000000000000,0.00749000000000000
9600.00000000000000000,-0.00001060000000000,-0.00001050000000000,-0.00001120000000000,-0.00000000833000000,0.00000015400000000,0.00001060000000000,0.00001830000000000,-0.00000029000000000,-0.00002150000000000,0.00002700000000000,0.00007410000000000,-0.00036400000000000,-0.00000506000000000,0.00009350000000000,0.00644000000000000,0.00744000000000000
9700.00000000000000000,-0.00001060000000000,-0.00001050000000000,-0.00001120000000000,-0.00000000785000000,0.00000015000000000,0.00001060000000000,0.00001840000000000,-0.00000026900000000,-0.00002150000000000,0.00002690000000000,0.00007430000000000,-0.00036500000000000,-0.00000477000000000,0.00009110000000000,0.00646000000000000,0.00747000000000000
9800.00000000000000000,-0.00001070000000000,-0.00001070000000000,-0.00001140000000000,-0.00000000818000000,0.00000014500000000,0.00001080000000000,0.00001860000000000,-0.00000029500000000,-0.00002180000000000,0.00002690000000000,0.00007520000000000,-0.00037000000000000,-0.00000497000000000,0.00008840000000000,0.00654000000000000,0.00756000000000000
9900.00000000000000000,-0.00001130000000000,-0.00001120000000000,-0.00001200000000000,-0.00000000898000000,0.00000016100000000,0.00001100000000000,0.00001900000000000,-0.00000068300000000,-0.00002270000000000,0.00002970000000000,0.00007930000000000,-0.00039100000000000,-0.00000546000000000,0.00009820000000000,0.00668000000000000,0.00772000000000000
10000.00000000000000000,-0.00001200000000000,-0.00001190000000000,-0.00001270000000000,-0.00000000914000000,0.00000016500000000,0.00001130000000000,0.00001960000000000,-0.00000108000000000,-0.00002370000000000,0.00003240000000000,0.00008420000000000,-0.00041600000000000,-0.00000556000000000,0.00010000000000000,0.00686000000000000,0.00793000000000000
10100.00000000000000000,-0.00001250000000000,-0.00001240000000000,-0.00001320000000000,-0.00000000915000000,0.00000019100000000,0.00001150000000000,0.00001990000000000,-0.00000136000000000,-0.00002430000000000,0.00003400000000000,0.00008740000000000,-0.00043200000000000,-0.00000557000000000,0.00011600000000000,0.00698000000000000,0.00807000000000000
10200.00000000000000000,-0.00001260000000000,-0.00001250000000000,-0.00001340000000000,-0.00000000928000000,0.00000018700000000,0.00001160000000000,0.00002020000000000,-0.00000137000000000,-0.00002470000000000,0.00003390000000000,0.00008860000000000,-0.00043800000000000,-0.00000564000000000,0.00011400000000000,0.00708000000000000,0.00819000000000000
10300.00000000000000000,-0.00001240000000000,-0.00001230000000000,-0.00001320000000000,-0.00000000963000000,0.00000016900000000,0.00001160000000000,0.00002010000000000,-0.00000117000000000,-0.00002440000000000,0.00003250000000000,0.00008690000000000,-0.00042900000000000,-0.00000586000000000,0.00010300000000000,0.00706000000000000,0.00816000000000000
10400.00000000000000000,-0.00001210000000000,-0.00001200000000000,-0.00001280000000000,-0.00000000947000000,0.00000021300000000,0.00001160000000000,0.00002000000000000,-0.00000090600000000,-0.00002400000000000,0.00003090000000000,0.00008490000000000,-0.00041800000000000,-0.00000576000000000,0.00013000000000000,0.00703000000000000,0.00813000000000000
10500.00000000000000000,-0.00001170000000000,-0.00001160000000000,-0.00001240000000000,-0.00000000881000000,0.00000020400000000,0.00001150000000000,0.00002000000000000,-0.00000052600000000,-0.00002360000000000,0.00002810000000000,0.00008240000000000,-0.00040300000000000,-0.00000536000000000,0.00012400000000000,0.00702000000000000,0.00811000000000000
10600.00000000000000000,-0.00001170000000000,-0.00001160000000000,-0.00001240000000000,-0.00000000877000000,0.00000019400000000,0.00001160000000000,0.00002020000000000,-0.00000038500000000,-0.00002370000000000,0.00002720000000000,0.00008210000000000,-0.00040000000000000,-0.00000534000000000,0.00011800000000000,0.00708000000000000,0.00818000000000000
10700.00000000000000000,-0.00001190000000000,-0.00001180000000000,-0.00001260000000000,-0.00000000880000000,0.00000022100000000,0.00001180000000000,0.00002040000000000,-0.00000042200000000,-0.00002400000000000,0.00002720000000000,0.00008330000000000,-0.00040600000000000,-0.00000535000000000,0.00013500000000000,0.00717000000000000,0.00828000000000000
10800.00000000000000000,-0.00001260000000000,-0.00001250000000000,-0.00001340000000000,-0.00000000915000000,0.00000022000000000,0.00001210000000000,0.00002100000000000,-0.00000088100000000,-0.00002510000000000,0.00003040000000000,0.00008860000000000,-0.00043300000000000,-0.00000556000000000,0.00013400000000000,0.00735000000000000,0.00850000000000000
10900.00000000000000000,-0.00001340000000000,-0.00001330000000000,-0.00001420000000000,-0.00000000941000000,0.00000024700000000,0.00001230000000000,0.00002140000000000,-0.00000148000000000,-0.00002610000000000,0.00003390000000000,0.00009440000000000,-0.00046200000000000,-0.00000572000000000,0.00015000000000000,0.00749000000000000,0.00866000000000000
11000.00000000000000000,-0.00001390000000000,-0.00001380000000000,-0.00001480000000000,-0.00000000981000000,0.00000025700000000,0.00001260000000000,0.00002180000000000,-0.00000179000000000,-0.00002690000000000,0.00003610000000000,0.00009800000000000,-0.00048100000000000,-0.00000597000000000,0.00015700000000000,0.00764000000000000,0.00883000000000000
11100.00000000000000000,-0.00001410000000000,-0.00001400000000000,-0.00001490000000000,-0.00000000968000000,0.00000024900000000,0.00001260000000000,0.00002190000000000,-0.00000183000000000,-0.00002710000000000,0.00003580000000000,0.00009900000000000,-0.00048500000000000,-0.00000588000000000,0.00015200000000000,0.00769000000000000,0.00889000000000000
11200.00000000000000000,-0.00001370000000000,-0.00001360000000000,-0.00001450000000000,-0.00000000982000000,0.00000028700000000,0.00001260000000000,0.00002190000000000,-0.00000146000000000,-0.00002670000000000,0.00003350000000000,0.00009630000000000,-0.00047000000000000,-0.00000597000000000,0.00017500000000000,0.00767000000000000,0.00886000000000000
11300.00000000000000000,-0.00001320000000000,-0.00001310000000000,-0.00001400000000000,-0.00000000991000000,0.00000028400000000,0.00001260000000000,0.00002180000000000,-0.00000107000000000,-0.00002620000000000,0.00003090000000000,0.00009350000000000,-0.00045400000000000,-0.00000603000000000,0.00017200000000000,0.00764000000000000,0.00883000000000000
11400.00000000000000000,-0.00001290000000000,-0.00001280000000000,-0.00001370000000000,-0.00000000948000000,0.00000027400000000,0.00001250000000000,0.00002170000000000,-0.00000074000000000,-0.00002580000000000,0.00002860000000000,0.00009120000000000,-0.00044100000000000,-0.00000577000000000,0.00016700000000000,0.00763000000000000,0.00882000000000000
11500.00000000000000000,-0.00001300000000000,-0.00001290000000000,-0.00001380000000000,-0.00000000911000000,0.00000030300000000,0.00001270000000000,0.00002190000000000,-0.00000072900000000,-0.00002610000000000,0.00002790000000000,0.00009210000000000,-0.00044400000000000,-0.00000554000000000,0.00018400000000000,0.00770000000000000,0.00890000000000000
11600.00000000000000000,-0.00001340000000000,-0.00001330000000000,-0.00001420000000000,-0.00000000895000000,0.00000031500000000,0.00001290000000000,0.00002230000000000,-0.00000091700000000,-0.00002670000000000,0.00002910000000000,0.00009470000000000,-0.00045700000000000,-0.00000544000000000,0.00019200000000000,0.00782000000000000,0.00904000000000000
11700.00000000000000000,-0.00001420000000000,-0.00001410000000000,-0.00001510000000000,-0.00000000944000000,0.00000032000000000,0.00001310000000000,0.00002280000000000,-0.00000155000000000,-0.00002780000000000,0.00003310000000000,0.00010100000000000,-0.00048900000000000,-0.00000574000000000,0.00019500000000000,0.00798000000000000,0.00922000000000000
11800.00000000000000000,-0.00001490000000000,-0.00001480000000000,-0.00001580000000000,-0.00000000974000000,0.00000037400000000,0.00001330000000000,0.00002310000000000,-0.00000200000000000,-0.00002870000000000,0.00003580000000000,0.00010500000000000,-0.00051200000000000,-0.00000592000000000,0.00022800000000000,0.00810000000000000,0.00937000000000000
11900.00000000000000000,-0.00001530000000000,-0.00001520000000000,-0.00001630000000000,-0.00000000947000000,0.00000036500000000,0.00001360000000000,0.00002350000000000,-0.00000223000000000,-0.00002940000000000,0.00003710000000000,0.00010900000000000,-0.00052800000000000,-0.00000576000000000,0.00022200000000000,0.00825000000000000,0.00954000000000000
12000.00000000000000000,-0.00001540000000000,-0.00001520000000000,-0.00001630000000000,-0.00000000985000000,0.00000036800000000,0.00001360000000000,0.00002360000000000,-0.00000218000000000,-0.00002950000000000,0.00003660000000000,0.00010900000000000,-0.00052900000000000,-0.00000599000000000,0.00022400000000000,0.00829000000000000,0.00959000000000000
12100.00000000000000000,-0.00001500000000000,-0.00001490000000000,-0.00001590000000000,-0.00000000997000000,0.00000040100000000,0.00001360000000000,0.00002360000000000,-0.00000183000000000,-0.00002910000000000,0.00003450000000000,0.00010600000000000,-0.00051500000000000,-0.00000606000000000,0.00024400000000000,0.00828000000000000,0.00957000000000000
12200.00000000000000000,-0.00001460000000000,-0.00001450000000000,-0.00001550000000000,-0.00000000983000000,0.00000039900000000,0.00001360000000000,0.00002350000000000,-0.00000148000000000,-0.00002860000000000,0.00003170000000000,0.00010400000000000,-0.00050000000000000,-0.00000598000000000,0.00024300000000000,0.00824000000000000,0.00953000000000000
12300.00000000000000000,-0.00001430000000000,-0.00001420000000000,-0.00001520000000000,-0.00000000934000000,0.00000037400000000,0.00001360000000000,0.00002350000000000,-0.00000115000000000,-0.00002830000000000,0.00002950000000000,0.00010200000000000,-0.00048800000000000,-0.00000568000000000,0.00022800000000000,0.00826000000000000,0.00955000000000000
12400.00000000000000000,-0.00001450000000000,-0.00001440000000000,-0.00001540000000000,-0.00000000959000000,0.00000041900000000,0.00001370000000000,0.00002380000000000,-0.00000121000000000,-0.00002860000000000,0.00003000000000000,0.00010300000000000,-0.00049400000000000,-0.00000583000000000,0.00025500000000000,0.00833000000000000,0.00963000000000000
12500.00000000000000000,-0.00001490000000000,-0.00001480000000000,-0.00001580000000000,-0.00000000966000000,0.00000040400000000,0.00001390000000000,0.00002410000000000,-0.00000146000000000,-0.00002930000000000,0.00003090000000000,0.00010600000000000,-0.00050900000000000,-0.00000588000000000,0.00024600000000000,0.00846000000000000,0.00978000000000000
12600.00000000000000000,-0.00001570000000000,-0.00001550000000000,-0.00001660000000000,-0.00000001020000000,0.00000043300000000,0.00001410000000000,0.00002450000000000,-0.00000199000000000,-0.00003030000000000,0.00003430000000000,0.00011100000000000,-0.00053600000000000,-0.00000622000000000,0.00026300000000000,0.00859000000000000,0.00993000000000000
12700.00000000000000000,-0.00001620000000000,-0.00001600000000000,-0.00001710000000000,-0.00000001040000000,0.00000044900000000,0.00001440000000000,0.00002490000000000,-0.00000226000000000,-0.00003100000000000,0.00003630000000000,0.00011500000000000,-0.00055400000000000,-0.00000635000000000,0.00027300000000000,0.00874000000000000,0.01010000000000000
12800.00000000000000000,-0.00001660000000000,-0.00001640000000000,-0.00001760000000000,-0.00000001020000000,0.00000043100000000,0.00001460000000000,0.00002530000000000,-0.00000250000000000,-0.00003170000000000,0.00003740000000000,0.00011800000000000,-0.00056800000000000,-0.00000621000000000,0.00026200000000000,0.00886000000000000,0.01020000000000000
12900.00000000000000000,-0.00001650000000000,-0.00001640000000000,-0.00001750000000000,-0.00000001010000000,0.00000044800000000,0.00001460000000000,0.00002540000000000,-0.00000234000000000,-0.00003160000000000,0.00003630000000000,0.00011700000000000,-0.00056500000000000,-0.00000616000000000,0.00027200000000000,0.00890000000000000,0.01030000000000000
13000.00000000000000000,-0.00001610000000000,-0.00001600000000000,-0.00001700000000000,-0.00000001040000000,0.00000044800000000,0.00001460000000000,0.00002530000000000,-0.00000196000000000,-0.00003120000000000,0.00003400000000000,0.00011400000000000,-0.00054900000000000,-0.00000634000000000,0.00027200000000000,0.00888000000000000,0.01030000000000000
13100.00000000000000000,-0.00001570000000000,-0.00001550000000000,-0.00001660000000000,-0.00000001020000000,0.00000040800000000,0.00001460000000000,0.00002520000000000,-0.00000158000000000,-0.00003070000000000,0.00003080000000000,0.00011100000000000,-0.00053300000000000,-0.00000620000000000,0.00024800000000000,0.00885000000000000,0.01020000000000000
13200.00000000000000000,-0.00001540000000000,-0.00001530000000000,-0.00001630000000000,-0.00000001050000000,0.00000043500000000,0.00001460000000000,0.00002530000000000,-0.00000126000000000,-0.00003050000000000,0.00002920000000000,0.00010900000000000,-0.00052200000000000,-0.00000637000000000,0.00026400000000000,0.00888000000000000,0.01030000000000000
13300.00000000000000000,-0.00001560000000000,-0.00001550000000000,-0.00001660000000000,-0.00000001080000000,0.00000040000000000,0.00001480000000000,0.00002560000000000,-0.00000131000000000,-0.00003090000000000,0.00002970000000000,0.00011100000000000,-0.00053000000000000,-0.00000660000000000,0.00024300000000000,0.00899000000000000,0.01040000000000000
13400.00000000000000000,-0.00001600000000000,-0.00001590000000000,-0.00001700000000000,-0.00000001090000000,0.00000039600000000,0.00001500000000000,0.00002600000000000,-0.00000151000000000,-0.00003150000000000,0.00003070000000000,0.00011400000000000,-0.00054300000000000,-0.00000664000000000,0.00024100000000000,0.00911000000000000,0.01050000000000000
13500.00000000000000000,-0.00001660000000000,-0.00001650000000000,-0.00001760000000000,-0.00000001170000000,0.00000042800000000,0.00001520000000000,0.00002640000000000,-0.00000188000000000,-0.00003230000000000,0.00003310000000000,0.00011800000000000,-0.00056500000000000,-0.00000709000000000,0.00026100000000000,0.00925000000000000,0.01070000000000000
13600.00000000000000000,-0.00001700000000000,-0.00001690000000000,-0.00001800000000000,-0.00000001190000000,0.00000038900000000,0.00001540000000000,0.00002670000000000,-0.00000208000000000,-0.00003290000000000,0.00003460000000000,0.00012000000000000,-0.00057800000000000,-0.00000722000000000,0.00023700000000000,0.00937000000000000,0.01080000000000000
13700.00000000000000000,-0.00001730000000000,-0.00001720000000000,-0.00001830000000000,-0.00000001200000000,0.00000035100000000,0.00001560000000000,0.00002700000000000,-0.00000226000000000,-0.00003340000000000,0.00003520000000000,0.00012200000000000,-0.00058900000000000,-0.00000727000000000,0.00021300000000000,0.00947000000000000,0.01090000000000000
13800.00000000000000000,-0.00001700000000000,-0.00001690000000000,-0.00001800000000000,-0.00000001190000000,0.00000037400000000,0.00001570000000000,0.00002710000000000,-0.00000187000000000,-0.00003320000000000,0.00003340000000000,0.00012000000000000,-0.00057800000000000,-0.00000721000000000,0.00022800000000000,0.00952000000000000,0.01100000000000000
13900.00000000000000000,-0.00001660000000000,-0.00001650000000000,-0.00001760000000000,-0.00000001230000000,0.00000031200000000,0.00001560000000000,0.00002710000000000,-0.00000148000000000,-0.00003270000000000,0.00003060000000000,0.00011700000000000,-0.00056200000000000,-0.00000745000000000,0.00019000000000000,0.00950000000000000,0.01100000000000000
14000.00000000000000000,-0.00001620000000000,-0.00001600000000000,-0.00001710000000000,-0.00000001260000000,0.00000029400000000,0.00001560000000000,0.00002710000000000,-0.00000103000000000,-0.00003230000000000,0.00002810000000000,0.00011400000000000,-0.00054400000000000,-0.00000767000000000,0.00017900000000000,0.00950000000000000,0.01100000000000000
14100.00000000000000000,-0.00001590000000000,-0.00001570000000000,-0.00001680000000000,-0.00000001250000000,0.00000029000000000,0.00001570000000000,0.00002720000000000,-0.00000063500000000,-0.00003200000000000,0.00002560000000000,0.00011100000000000,-0.00053100000000000,-0.00000762000000000,0.00017600000000000,0.00953000000000000,0.01100000000000000
14200.00000000000000000,-0.00001610000000000,-0.00001590000000000,-0.00001700000000000,-0.00000001310000000,0.00000023900000000,0.00001580000000000,0.00002740000000000,-0.00000071300000000,-0.00003240000000000,0.00002600000000000,0.00011300000000000,-0.00053900000000000,-0.00000795000000000,0.00014500000000000,0.00963000000000000,0.01110000000000000
14300.00000000000000000,-0.00001640000000000,-0.00001620000000000,-0.00001730000000000,-0.00000001330000000,0.00000021100000000,0.00001610000000000,0.00002790000000000,-0.00000075500000000,-0.00003300000000000,0.00002680000000000,0.00011400000000000,-0.00054900000000000,-0.00000811000000000,0.00012800000000000,0.00979000000000000,0.01130000000000000
14400.00000000000000000,-0.00001690000000000,-0.00001670000000000,-0.00001790000000000,-0.00000001460000000,0.00000020500000000,0.00001630000000000,0.00002830000000000,-0.00000102000000000,-0.00003370000000000,0.00002920000000000,0.00011700000000000,-0.00056700000000000,-0.00000887000000000,0.00012500000000000,0.00994000000000000,0.01150000000000000
14500.00000000000000000,-0.00001720000000000,-0.00001700000000000,-0.00001820000000000,-0.00000001510000000,0.00000013800000000,0.00001650000000000,0.00002850000000000,-0.00000119000000000,-0.00003410000000000,0.00002960000000000,0.00011900000000000,-0.00057600000000000,-0.00000915000000000,0.00008390000000000,0.01000000000000000,0.01160000000000000
14600.00000000000000000,-0.00001730000000000,-0.00001710000000000,-0.00001830000000000,-0.00000001580000000,0.00000013700000000,0.00001670000000000,0.00002890000000000,-0.00000111000000000,-0.00003440000000000,0.00002980000000000,0.00012000000000000,-0.00057900000000000,-0.00000961000000000,0.00008340000000000,0.01010000000000000,0.01170000000000000
14700.00000000000000000,-0.00001700000000000,-0.00001680000000000,-0.00001800000000000,-0.00000001580000000,0.00000009470000000,0.00001670000000000,0.00002890000000000,-0.00000079400000000,-0.00003420000000000,0.00002750000000000,0.00011800000000000,-0.00056800000000000,-0.00000960000000000,0.00005760000000000,0.01010000000000000,0.01170000000000000
14800.00000000000000000,-0.00001640000000000,-0.00001630000000000,-0.00001740000000000,-0.00000001560000000,0.00000003670000000,0.00001670000000000,0.00002900000000000,-0.00000020000000000,-0.00003360000000000,0.00002380000000000,0.00011300000000000,-0.00054600000000000,-0.00000946000000000,0.00002230000000000,0.01020000000000000,0.01170000000000000
14900.00000000000000000,-0.00001610000000000,-0.00001590000000000,-0.00001700000000000,-0.00000001560000000,0.00000003360000000,0.00001670000000000,0.00002890000000000,0.00000014300000000,-0.00003320000000000,0.00002130000000000,0.00011100000000000,-0.00053200000000000,-0.00000950000000000,0.00002040000000000,0.01010000000000000,0.01170000000000000
15000.00000000000000000,-0.00001590000000000,-0.00001570000000000,-0.00001680000000000,-0.00000001620000000,-0.00000000528000000,0.00001670000000000,0.00002900000000000,0.00000042500000000,-0.00003310000000000,0.00001950000000000,0.00010900000000000,-0.00052300000000000,-0.00000983000000000,-0.00000321000000000,0.01020000000000000,0.01180000000000000
15100.00000000000000000,-0.00001610000000000,-0.00001600000000000,-0.00001710000000000,-0.00000001680000000,-0.00000005420000000,0.00001690000000000,0.00002930000000000,0.00000033900000000,-0.00003350000000000,0.00002050000000000,0.00011100000000000,-0.00053300000000000,-0.00001020000000000,-0.00003290000000000,0.01030000000000000,0.01190000000000000
15200.00000000000000000,-0.00001640000000000,-0.00001630000000000,-0.00001730000000000,-0.00000001780000000,-0.00000005360000000,0.00001720000000000,0.00002980000000000,0.00000031900000000,-0.00003410000000000,0.00002140000000000,0.00011200000000000,-0.00054200000000000,-0.00001080000000000,-0.00003260000000000,0.01050000000000000,0.01210000000000000
15300.00000000000000000,-0.00001680000000000,-0.00001670000000000,-0.00001780000000000,-0.00000001890000000,-0.00000012500000000,0.00001740000000000,0.00003020000000000,0.00000009840000000,-0.00003470000000000,0.00002330000000000,0.00011500000000000,-0.00055700000000000,-0.00001150000000000,-0.00007600000000000,0.01060000000000000,0.01220000000000000
15400.00000000000000000,-0.00001700000000000,-0.00001680000000000,-0.00001790000000000,-0.00000001950000000,-0.00000015100000000,0.00001760000000000,0.00003040000000000,0.00000010800000000,-0.00003500000000000,0.00002290000000000,0.00011500000000000,-0.00056100000000000,-0.00001190000000000,-0.00009170000000000,0.01070000000000000,0.01230000000000000
15500.00000000000000000,-0.00001700000000000,-0.00001690000000000,-0.00001800000000000,-0.00000001950000000,-0.00000014300000000,0.00001770000000000,0.00003060000000000,0.00000019500000000,-0.00003520000000000,0.00002200000000000,0.00011500000000000,-0.00056100000000000,-0.00001180000000000,-0.00008690000000000,0.01080000000000000,0.01240000000000000
15600.00000000000000000,-0.00001680000000000,-0.00001660000000000,-0.00001770000000000,-0.00000001910000000,-0.00000018000000000,0.00001770000000000,0.00003070000000000,0.00000048000000000,-0.00003500000000000,0.00002000000000000,0.00011400000000000,-0.00055200000000000,-0.00001160000000000,-0.00011000000000000,0.01080000000000000,0.01250000000000000
15700.00000000000000000,-0.00001650000000000,-0.00001630000000000,-0.00001740000000000,-0.00000001910000000,-0.00000020400000000,0.00001780000000000,0.00003080000000000,0.00000085500000000,-0.00003470000000000,0.00001770000000000,0.00011200000000000,-0.00053900000000000,-0.00001160000000000,-0.00012400000000000,0.01080000000000000,0.01250000000000000
15800.00000000000000000,-0.00001620000000000,-0.00001600000000000,-0.00001710000000000,-0.00000001930000000,-0.00000018400000000,0.00001780000000000,0.00003080000000000,0.00000113000000000,-0.00003440000000000,0.00001570000000000,0.00011000000000000,-0.00052800000000000,-0.00001170000000000,-0.00011200000000000,0.01080000000000000,0.01250000000000000
15900.00000000000000000,-0.00001620000000000,-0.00001610000000000,-0.00001710000000000,-0.00000001990000000,-0.00000023800000000,0.00001790000000000,0.00003090000000000,0.00000121000000000,-0.00003450000000000,0.00001510000000000,0.00011000000000000,-0.00052800000000000,-0.00001210000000000,-0.00014500000000000,0.01090000000000000,0.01250000000000000
16000.00000000000000000,-0.00001660000000000,-0.00001640000000000,-0.00001750000000000,-0.00000002020000000,-0.00000022500000000,0.00001800000000000,0.00003120000000000,0.00000102000000000,-0.00003510000000000,0.00001590000000000,0.00011200000000000,-0.00054000000000000,-0.00001230000000000,-0.00013700000000000,0.01100000000000000,0.01270000000000000
16100.00000000000000000,-0.00001690000000000,-0.00001680000000000,-0.00001790000000000,-0.00000002050000000,-0.00000021100000000,0.00001830000000000,0.00003170000000000,0.00000087800000000,-0.00003570000000000,0.00001690000000000,0.00011500000000000,-0.00055200000000000,-0.00001250000000000,-0.00012800000000000,0.01110000000000000,0.01280000000000000
16200.00000000000000000,-0.00001740000000000,-0.00001730000000000,-0.00001840000000000,-0.00000002060000000,-0.00000023300000000,0.00001850000000000,0.00003210000000000,0.00000059300000000,-0.00003640000000000,0.00001830000000000,0.00011800000000000,-0.00057000000000000,-0.00001260000000000,-0.00014200000000000,0.01130000000000000,0.01300000000000000
16300.00000000000000000,-0.00001770000000000,-0.00001750000000000,-0.00001870000000000,-0.00000002070000000,-0.00000020200000000,0.00001860000000000,0.00003230000000000,0.00000042700000000,-0.00003680000000000,0.00001900000000000,0.00012000000000000,-0.00058000000000000,-0.00001260000000000,-0.00012300000000000,0.01130000000000000,0.01310000000000000
16400.00000000000000000,-0.00001790000000000,-0.00001770000000000,-0.00001890000000000,-0.00000002070000000,-0.00000018700000000,0.00001870000000000,0.00003240000000000,0.00000036400000000,-0.00003710000000000,0.00001870000000000,0.00012100000000000,-0.00058400000000000,-0.00001260000000000,-0.00011400000000000,0.01140000000000000,0.01320000000000000
16500.00000000000000000,-0.00001770000000000,-0.00001760000000000,-0.00001870000000000,-0.00000002050000000,-0.00000018500000000,0.00001870000000000,0.00003250000000000,0.00000053800000000,-0.00003700000000000,0.00001710000000000,0.00012100000000000,-0.00057800000000000,-0.00001250000000000,-0.00011300000000000,0.01140000000000000,0.01320000000000000
16600.00000000000000000,-0.00001760000000000,-0.00001740000000000,-0.00001860000000000,-0.00000002000000000,-0.00000013300000000,0.00001880000000000,0.00003250000000000,0.00000067700000000,-0.00003690000000000,0.00001550000000000,0.00012000000000000,-0.00057400000000000,-0.00001220000000000,-0.00008100000000000,0.01140000000000000,0.01320000000000000
16700.00000000000000000,-0.00001760000000000,-0.00001740000000000,-0.00001860000000000,-0.00000001940000000,-0.00000011700000000,0.00001880000000000,0.00003260000000000,0.00000075400000000,-0.00003690000000000,0.00001430000000000,0.00012000000000000,-0.00057200000000000,-0.00001180000000000,-0.00007110000000000,0.01140000000000000,0.01320000000000000
16800.00000000000000000,-0.00001780000000000,-0.00001770000000000,-0.00001880000000000,-0.00000001870000000,-0.00000008630000000,0.00001890000000000,0.00003270000000000,0.00000056000000000,-0.00003720000000000,0.00001420000000000,0.00012200000000000,-0.00058000000000000,-0.00001140000000000,-0.00005250000000000,0.01150000000000000,0.01330000000000000
16900.00000000000000000,-0.00001830000000000,-0.00001820000000000,-0.00001940000000000,-0.00000001850000000,-0.00000001870000000,0.00001910000000000,0.00003310000000000,0.00000022600000000,-0.00003790000000000,0.00001550000000000,0.00012600000000000,-0.00059700000000000,-0.00001130000000000,-0.00001140000000000,0.01160000000000000,0.01340000000000000
17000.00000000000000000,-0.00001890000000000,-0.00001870000000000,-0.00002000000000000,-0.00000001860000000,0.00000000612000000,0.00001930000000000,0.00003340000000000,-0.00000016000000000,-0.00003870000000000,0.00001770000000000,0.00013000000000000,-0.00061900000000000,-0.00001130000000000,0.00000372000000000,0.01170000000000000,0.01360000000000000
17100.00000000000000000,-0.00001960000000000,-0.00001940000000000,-0.00002070000000000,-0.00000001860000000,0.00000005940000000,0.00001950000000000,0.00003380000000000,-0.00000065000000000,-0.00003960000000000,0.00002020000000000,0.00013500000000000,-0.00064300000000000,-0.00001130000000000,0.00003610000000000,0.01190000000000000,0.01370000000000000
17200.00000000000000000,-0.00002000000000000,-0.00001980000000000,-0.00002110000000000,-0.00000001820000000,0.00000015100000000,0.00001960000000000,0.00003400000000000,-0.00000096700000000,-0.00004020000000000,0.00002130000000000,0.00013900000000000,-0.00065800000000000,-0.00001110000000000,0.00009170000000000,0.01190000000000000,0.01380000000000000
17300.00000000000000000,-0.00002030000000000,-0.00002010000000000,-0.00002140000000000,-0.00000001720000000,0.00000018700000000,0.00001970000000000,0.00003410000000000,-0.00000117000000000,-0.00004050000000000,0.00002140000000000,0.00014100000000000,-0.00066700000000000,-0.00001050000000000,0.00011400000000000,0.01200000000000000,0.01380000000000000
17400.00000000000000000,-0.00002020000000000,-0.00002000000000000,-0.00002130000000000,-0.00000001650000000,0.00000023800000000,0.00001970000000000,0.00003420000000000,-0.00000100000000000,-0.00004040000000000,0.00001960000000000,0.00014000000000000,-0.00066100000000000,-0.00001000000000000,0.00014500000000000,0.01200000000000000,0.01390000000000000
17500.00000000000000000,-0.00002030000000000,-0.00002010000000000,-0.00002140000000000,-0.00000001560000000,0.00000032500000000,0.00001970000000000,0.00003420000000000,-0.00000107000000000,-0.00004060000000000,0.00001890000000000,0.00014200000000000,-0.00066400000000000,-0.00000949000000000,0.00019800000000000,0.01200000000000000,0.01390000000000000
17600.00000000000000000,-0.00002050000000000,-0.00002030000000000,-0.00002160000000000,-0.00000001480000000,0.00000036300000000,0.00001980000000000,0.00003430000000000,-0.00000129000000000,-0.00004080000000000,0.00001890000000000,0.00014400000000000,-0.00067200000000000,-0.00000902000000000,0.00022000000000000,0.01200000000000000,0.01390000000000000
17700.00000000000000000,-0.00002090000000000,-0.00002070000000000,-0.00002200000000000,-0.00000001440000000,0.00000044600000000,0.00001990000000000,0.00003440000000000,-0.00000158000000000,-0.00004130000000000,0.00001970000000000,0.00014700000000000,-0.00068500000000000,-0.00000874000000000,0.00027100000000000,0.01210000000000000,0.01400000000000000
17800.00000000000000000,-0.00002140000000000,-0.00002120000000000,-0.00002260000000000,-0.00000001360000000,0.00000052900000000,0.00002000000000000,0.00003470000000000,-0.00000199000000000,-0.00004210000000000,0.00002150000000000,0.00015100000000000,-0.00070600000000000,-0.00000829000000000,0.00032200000000000,0.01220000000000000,0.01410000000000000
17900.00000000000000000,-0.00002200000000000,-0.00002180000000000,-0.00002330000000000,-0.00000001320000000,0.00000057500000000,0.00002020000000000,0.00003510000000000,-0.00000242000000000,-0.00004290000000000,0.00002310000000000,0.00015600000000000,-0.00072700000000000,-0.00000800000000000,0.00035000000000000,0.01230000000000000,0.01420000000000000
18000.00000000000000000,-0.00002280000000000,-0.00002250000000000,-0.00002410000000000,-0.00000001250000000,0.00000064600000000,0.00002040000000000,0.00003540000000000,-0.00000301000000000,-0.00004380000000000,0.00002560000000000,0.00016200000000000,-0.00075400000000000,-0.00000763000000000,0.00039300000000000,0.01240000000000000,0.01430000000000000
18100.00000000000000000,-0.00002320000000000,-0.00002290000000000,-0.00002450000000000,-0.00000001170000000,0.00000071900000000,0.00002050000000000,0.00003560000000000,-0.00000328000000000,-0.00004440000000000,0.00002620000000000,0.00016500000000000,-0.00076800000000000,-0.00000710000000000,0.00043800000000000,0.01250000000000000,0.01440000000000000
18200.00000000000000000,-0.00002340000000000,-0.00002310000000000,-0.00002470000000000,-0.00000001130000000,0.00000075200000000,0.00002060000000000,0.00003570000000000,-0.00000340000000000,-0.00004470000000000,0.00002640000000000,0.00016700000000000,-0.00077500000000000,-0.00000688000000000,0.00045700000000000,0.01250000000000000,0.01450000000000000
18300.00000000000000000,-0.00002330000000000,-0.00002300000000000,-0.00002460000000000,-0.00000001130000000,0.00000081600000000,0.00002060000000000,0.00003580000000000,-0.00000329000000000,-0.00004460000000000,0.00002520000000000,0.00016700000000000,-0.00077100000000000,-0.00000686000000000,0.00049600000000000,0.01250000000000000,0.01450000000000000
18400.00000000000000000,-0.00002330000000000,-0.00002310000000000,-0.00002460000000000,-0.00000001070000000,0.00000085000000000,0.00002070000000000,0.00003590000000000,-0.00000330000000000,-0.00004470000000000,0.00002430000000000,0.00016800000000000,-0.00077200000000000,-0.00000653000000000,0.00051700000000000,0.01260000000000000,0.01450000000000000
18500.00000000000000000,-0.00002340000000000,-0.00002320000000000,-0.00002470000000000,-0.00000000953000000,0.00000088000000000,0.00002070000000000,0.00003600000000000,-0.00000332000000000,-0.00004490000000000,0.00002330000000000,0.00016900000000000,-0.00077400000000000,-0.00000580000000000,0.00053500000000000,0.01260000000000000,0.01460000000000000
18600.00000000000000000,-0.00002360000000000,-0.00002340000000000,-0.00002490000000000,-0.00000000894000000,0.00000093200000000,0.00002080000000000,0.00003620000000000,-0.00000338000000000,-0.00004510000000000,0.00002280000000000,0.00017000000000000,-0.00078000000000000,-0.00000544000000000,0.00056700000000000,0.01270000000000000,0.01470000000000000
18700.00000000000000000,-0.00002410000000000,-0.00002380000000000,-0.00002540000000000,-0.00000000911000000,0.00000094400000000,0.00002100000000000,0.00003650000000000,-0.00000369000000000,-0.00004580000000000,0.00002430000000000,0.00017400000000000,-0.00079700000000000,-0.00000554000000000,0.00057400000000000,0.01280000000000000,0.01480000000000000
18800.00000000000000000,-0.00002450000000000,-0.00002420000000000,-0.00002580000000000,-0.00000000914000000,0.00000095000000000,0.00002120000000000,0.00003680000000000,-0.00000392000000000,-0.00004640000000000,0.00002530000000000,0.00017600000000000,-0.00081000000000000,-0.00000556000000000,0.00057800000000000,0.01290000000000000,0.01490000000000000
18900.00000000000000000,-0.00002490000000000,-0.00002470000000000,-0.00002630000000000,-0.00000000994000000,0.00000098700000000,0.00002140000000000,0.00003710000000000,-0.00000423000000000,-0.00004700000000000,0.00002710000000000,0.00018000000000000,-0.00082700000000000,-0.00000605000000000,0.00060000000000000,0.01300000000000000,0.01500000000000000
19000.00000000000000000,-0.00002490000000000,-0.00002470000000000,-0.00002630000000000,-0.00000000973000000,0.00000094800000000,0.00002150000000000,0.00003730000000000,-0.00000412000000000,-0.00004720000000000,0.00002640000000000,0.00018000000000000,-0.00082600000000000,-0.00000592000000000,0.00057700000000000,0.01310000000000000,0.01510000000000000
19100.00000000000000000,-0.00002490000000000,-0.00002470000000000,-0.00002630000000000,-0.00000001110000000,0.00000093600000000,0.00002160000000000,0.00003740000000000,-0.00000401000000000,-0.00004720000000000,0.00002540000000000,0.00017900000000000,-0.00082400000000000,-0.00000675000000000,0.00056900000000000,0.01310000000000000,0.01520000000000000
19200.00000000000000000,-0.00002460000000000,-0.00002430000000000,-0.00002590000000000,-0.00000001000000000,0.00000093700000000,0.00002160000000000,0.00003750000000000,-0.00000361000000000,-0.00004690000000000,0.00002200000000000,0.00017700000000000,-0.00080900000000000,-0.00000608000000000,0.00057000000000000,0.01310000000000000,0.01520000000000000
19300.00000000000000000,-0.00002440000000000,-0.00002420000000000,-0.00002580000000000,-0.00000001070000000,0.00000088100000000,0.00002170000000000,0.00003760000000000,-0.00000340000000000,-0.00004680000000000,0.00002070000000000,0.00017500000000000,-0.00080300000000000,-0.00000648000000000,0.00053600000000000,0.01320000000000000,0.01520000000000000
19400.00000000000000000,-0.00002420000000000,-0.00002400000000000,-0.00002560000000000,-0.00000001100000000,0.00000083300000000,0.00002180000000000,0.00003770000000000,-0.00000311000000000,-0.00004670000000000,0.00001880000000000,0.00017300000000000,-0.00079400000000000,-0.00000667000000000,0.00050600000000000,0.01320000000000000,0.01530000000000000
19500.00000000000000000,-0.00002420000000000,-0.00002400000000000,-0.00002560000000000,-0.00000001250000000,0.00000080100000000,0.00002190000000000,0.00003810000000000,-0.00000294000000000,-0.00004690000000000,0.00001800000000000,0.00017300000000000,-0.00079300000000000,-0.00000758000000000,0.00048700000000000,0.01330000000000000,0.01540000000000000
19600.00000000000000000,-0.00002460000000000,-0.00002440000000000,-0.00002600000000000,-0.00000001390000000,0.00000070400000000,0.00002210000000000,0.00003840000000000,-0.00000313000000000,-0.00004750000000000,0.00001960000000000,0.00017500000000000,-0.00080700000000000,-0.00000846000000000,0.00042800000000000,0.01350000000000000,0.01560000000000000
19700.00000000000000000,-0.00002470000000000,-0.00002450000000000,-0.00002610000000000,-0.00000001520000000,0.00000065900000000,0.00002240000000000,0.00003880000000000,-0.00000304000000000,-0.00004780000000000,0.00001850000000000,0.00017500000000000,-0.00080900000000000,-0.00000923000000000,0.00040100000000000,0.01360000000000000,0.01570000000000000
19800.00000000000000000,-0.00002450000000000,-0.00002430000000000,-0.00002590000000000,-0.00000001640000000,0.00000057800000000,0.00002250000000000,0.00003900000000000,-0.00000270000000000,-0.00004770000000000,0.00001750000000000,0.00017300000000000,-0.00080100000000000,-0.00000998000000000,0.00035100000000000,0.01370000000000000,0.01580000000000000
19900.00000000000000000,-0.00002380000000000,-0.00002350000000000,-0.00002500000000000,-0.00000001710000000,0.00000045900000000,0.00002250000000000,0.00003900000000000,-0.00000189000000000,-0.00004690000000000,0.00001260000000000,0.00016700000000000,-0.00076900000000000,-0.00001040000000000,0.00027900000000000,0.01370000000000000,0.01580000000000000
20000.00000000000000000,-0.00002290000000000,-0.00002270000000000,-0.00002420000000000,-0.00000001740000000,0.00000040800000000,0.00002240000000000,0.00003890000000000,-0.00000109000000000,-0.00004600000000000,0.00000712000000000,0.00016000000000000,-0.00073700000000000,-0.00001060000000000,0.00024800000000000,0.01370000000000000,0.01580000000000000
20100.00000000000000000,-0.00002260000000000,-0.00002230000000000,-0.00002380000000000,-0.00000002130000000,0.00000026000000000,0.00002260000000000,0.00003920000000000,-0.00000049900000000,-0.00004580000000000,0.00000595000000000,0.00015700000000000,-0.00072300000000000,-0.00001290000000000,0.00015800000000000,0.01380000000000000,0.01590000000000000
20200.00000000000000000,-0.00002290000000000,-0.00002260000000000,-0.00002410000000000,-0.00000002010000000,0.00000015200000000,0.00002290000000000,0.00003980000000000,-0.00000056000000000,-0.00004650000000000,0.00000678000000000,0.00015900000000000,-0.00073400000000000,-0.00001230000000000,0.00009220000000000,0.01390000000000000,0.01610000000000000
20300.00000000000000000,-0.00002330000000000,-0.00002300000000000,-0.00002450000000000,-0.00000002560000000,0.00000011700000000,0.00002310000000000,0.00004010000000000,-0.00000076600000000,-0.00004710000000000,0.00000781000000000,0.00016000000000000,-0.00074600000000000,-0.00001560000000000,0.00007090000000000,0.01410000000000000,0.01630000000000000
20400.00000000000000000,-0.00002320000000000,-0.00002300000000000,-0.00002450000000000,-0.00000002600000000,0.00000002810000000,0.00002340000000000,0.00004060000000000,-0.00000045500000000,-0.00004730000000000,0.00000678000000000,0.00015900000000000,-0.00074300000000000,-0.00001580000000000,0.00001710000000000,0.01420000000000000,0.01640000000000000
20500.00000000000000000,-0.00002320000000000,-0.00002290000000000,-0.00002440000000000,-0.00000002580000000,-0.00000007270000000,0.00002330000000000,0.00004040000000000,-0.00000044400000000,-0.00004710000000000,0.00000528000000000,0.00015800000000000,-0.00073800000000000,-0.00001570000000000,-0.00004420000000000,0.01420000000000000,0.01640000000000000
20600.00000000000000000,-0.00002200000000000,-0.00002180000000000,-0.00002320000000000,-0.00000002820000000,-0.00000020100000000,0.00002360000000000,0.00004080000000000,0.00000094900000000,-0.00004620000000000,0.00000039600000000,0.00014900000000000,-0.00069700000000000,-0.00001720000000000,-0.00012200000000000,0.01430000000000000,0.01660000000000000
20700.00000000000000000,-0.00002160000000000,-0.00002130000000000,-0.00002270000000000,-0.00000002760000000,-0.00000024800000000,0.00002340000000000,0.00004050000000000,0.00000122000000000,-0.00004550000000000,-0.00000413000000000,0.00014600000000000,-0.00067800000000000,-0.00001680000000000,-0.00015100000000000,0.01420000000000000,0.01640000000000000
20800.00000000000000000,-0.00002100000000000,-0.00002080000000000,-0.00002210000000000,-0.00000002920000000,-0.00000030600000000,0.00002360000000000,0.00004080000000000,0.00000198000000000,-0.00004510000000000,-0.00000767000000000,0.00014200000000000,-0.00065600000000000,-0.00001780000000000,-0.00018600000000000,0.01430000000000000,0.01650000000000000
20900.00000000000000000,-0.00002110000000000,-0.00002090000000000,-0.00002220000000000,-0.00000003100000000,-0.00000039900000000,0.00002370000000000,0.00004100000000000,0.00000201000000000,-0.00004530000000000,-0.00000770000000000,0.00014200000000000,-0.00065800000000000,-0.00001890000000000,-0.00024300000000000,0.01440000000000000,0.01660000000000000
21000.00000000000000000,-0.00002120000000000,-0.00002090000000000,-0.00002230000000000,-0.00000003160000000,-0.00000047200000000,0.00002390000000000,0.00004130000000000,0.00000214000000000,-0.00004560000000000,-0.00000863000000000,0.00014200000000000,-0.00065900000000000,-0.00001920000000000,-0.00028700000000000,0.01450000000000000,0.01680000000000000
21100.00000000000000000,-0.00002160000000000,-0.00002130000000000,-0.00002270000000000,-0.00000003360000000,-0.00000049600000000,0.00002410000000000,0.00004190000000000,0.00000205000000000,-0.00004630000000000,-0.00000656000000000,0.00014400000000000,-0.00067300000000000,-0.00002050000000000,-0.00030200000000000,0.01470000000000000,0.01700000000000000
21200.00000000000000000,-0.00002210000000000,-0.00002190000000000,-0.00002320000000000,-0.00000003280000000,-0.00000045900000000,0.00002430000000000,0.00004210000000000,0.00000161000000000,-0.00004700000000000,-0.00000598000000000,0.00014800000000000,-0.00069100000000000,-0.00001990000000000,-0.00027900000000000,0.01480000000000000,0.01710000000000000
21300.00000000000000000,-0.00002230000000000,-0.00002200000000000,-0.00002340000000000,-0.00000003330000000,-0.00000049700000000,0.00002440000000000,0.00004230000000000,0.00000155000000000,-0.00004730000000000,-0.00000620000000000,0.00014900000000000,-0.00069600000000000,-0.00002020000000000,-0.00030200000000000,0.01480000000000000,0.01710000000000000
21400.00000000000000000,-0.00002210000000000,-0.00002190000000000,-0.00002320000000000,-0.00000003390000000,-0.00000051100000000,0.00002460000000000,0.00004260000000000,0.00000189000000000,-0.00004720000000000,-0.00000806000000000,0.00014800000000000,-0.00068800000000000,-0.00002060000000000,-0.00031100000000000,0.01490000000000000,0.01730000000000000
21500.00000000000000000,-0.00002190000000000,-0.00002160000000000,-0.00002300000000000,-0.00000003340000000,-0.00000049200000000,0.00002450000000000,0.00004240000000000,0.00000203000000000,-0.00004690000000000,-0.00001110000000000,0.00014600000000000,-0.00067800000000000,-0.00002030000000000,-0.00029900000000000,0.01490000000000000,0.01720000000000000
21600.00000000000000000,-0.00002180000000000,-0.00002160000000000,-0.00002290000000000,-0.00000003380000000,-0.00000048000000000,0.00002460000000000,0.00004270000000000,0.00000224000000000,-0.00004700000000000,-0.00001180000000000,0.00014600000000000,-0.00067600000000000,-0.00002060000000000,-0.00029200000000000,0.01500000000000000,0.01730000000000000
21700.00000000000000000,-0.00002180000000000,-0.00002160000000000,-0.00002290000000000,-0.00000003230000000,-0.00000042500000000,0.00002460000000000,0.00004260000000000,0.00000218000000000,-0.00004700000000000,-0.00001350000000000,0.00014700000000000,-0.00067500000000000,-0.00001960000000000,-0.00025800000000000,0.01490000000000000,0.01730000000000000
21800.00000000000000000,-0.00002220000000000,-0.00002190000000000,-0.00002330000000000,-0.00000003170000000,-0.00000035100000000,0.00002480000000000,0.00004290000000000,0.00000202000000000,-0.00004750000000000,-0.00001290000000000,0.00014900000000000,-0.00068700000000000,-0.00001930000000000,-0.00021300000000000,0.01510000000000000,0.01740000000000000
21900.00000000000000000,-0.00002300000000000,-0.00002270000000000,-0.00002410000000000,-0.00000003080000000,-0.00000029400000000,0.00002490000000000,0.00004310000000000,0.00000134000000000,-0.00004850000000000,-0.00001040000000000,0.00015500000000000,-0.00071500000000000,-0.00001870000000000,-0.00017900000000000,0.01510000000000000,0.01750000000000000
22000.00000000000000000,-0.00002390000000000,-0.00002360000000000,-0.00002510000000000,-0.00000002900000000,-0.00000018000000000,0.00002510000000000,0.00004340000000000,0.00000061800000000,-0.00004950000000000,-0.00000813000000000,0.00016200000000000,-0.00074600000000000,-0.00001760000000000,-0.00010900000000000,0.01520000000000000,0.01760000000000000
22100.00000000000000000,-0.00002460000000000,-0.00002430000000000,-0.00002590000000000,-0.00000002860000000,-0.00000006280000000,0.00002520000000000,0.00004380000000000,0.00000001480000000,-0.00005050000000000,-0.00000463000000000,0.00016800000000000,-0.00077400000000000,-0.00001740000000000,-0.00003820000000000,0.01540000000000000,0.01770000000000000
22200.00000000000000000,-0.00002530000000000,-0.00002500000000000,-0.00002660000000000,-0.00000002670000000,0.00000002110000000,0.00002530000000000,0.00004390000000000,-0.00000057200000000,-0.00005130000000000,-0.00000355000000000,0.00017400000000000,-0.00079700000000000,-0.00001620000000000,0.00001290000000000,0.01540000000000000,0.01780000000000000
22300.00000000000000000,-0.00002550000000000,-0.00002520000000000,-0.00002680000000000,-0.00000002510000000,0.00000014500000000,0.00002540000000000,0.00004410000000000,-0.00000075400000000,-0.00005160000000000,-0.00000372000000000,0.00017600000000000,-0.00080600000000000,-0.00001530000000000,0.00008840000000000,0.01550000000000000,0.01790000000000000
22400.00000000000000000,-0.00002550000000000,-0.00002520000000000,-0.00002690000000000,-0.00000002310000000,0.00000024100000000,0.00002540000000000,0.00004410000000000,-0.00000074200000000,-0.00005170000000000,-0.00000566000000000,0.00017700000000000,-0.00080500000000000,-0.00001400000000000,0.00014600000000000,0.01550000000000000,0.01790000000000000
22500.00000000000000000,-0.00002590000000000,-0.00002560000000000,-0.00002720000000000,-0.00000002070000000,0.00000036600000000,0.00002540000000000,0.00004410000000000,-0.00000113000000000,-0.00005200000000000,-0.00000560000000000,0.00018000000000000,-0.00081800000000000,-0.00001260000000000,0.00022300000000000,0.01550000000000000,0.01790000000000000
22600.00000000000000000,-0.00002640000000000,-0.00002610000000000,-0.00002780000000000,-0.00000001900000000,0.00000051800000000,0.00002550000000000,0.00004420000000000,-0.00000159000000000,-0.00005260000000000,-0.00000455000000000,0.00018500000000000,-0.00083700000000000,-0.00001160000000000,0.00031500000000000,0.01550000000000000,0.01790000000000000
22700.00000000000000000,-0.00002710000000000,-0.00002680000000000,-0.00002850000000000,-0.00000001690000000,0.00000063800000000,0.00002560000000000,0.00004440000000000,-0.00000220000000000,-0.00005340000000000,-0.00000241000000000,0.00019100000000000,-0.00086100000000000,-0.00001030000000000,0.00038800000000000,0.01560000000000000,0.01800000000000000
22800.00000000000000000,-0.00002800000000000,-0.00002770000000000,-0.00002950000000000,-0.00000001510000000,0.00000077800000000,0.00002580000000000,0.00004470000000000,-0.00000294000000000,-0.00005450000000000,0.00000035200000000,0.00019800000000000,-0.00089400000000000,-0.00000916000000000,0.00047300000000000,0.01570000000000000,0.01810000000000000
22900.00000000000000000,-0.00002890000000000,-0.00002860000000000,-0.00003050000000000,-0.00000001320000000,0.00000092200000000,0.00002590000000000,0.00004490000000000,-0.00000377000000000,-0.00005560000000000,0.00000333000000000,0.00020600000000000,-0.00092800000000000,-0.00000802000000000,0.00056100000000000,0.01580000000000000,0.01820000000000000
23000.00000000000000000,-0.00002970000000000,-0.00002930000000000,-0.00003130000000000,-0.00000001170000000,0.00000097900000000,0.00002610000000000,0.00004520000000000,-0.00000436000000000,-0.00005660000000000,0.00000546000000000,0.00021200000000000,-0.00095400000000000,-0.00000713000000000,0.00059500000000000,0.01590000000000000,0.01830000000000000
23100.00000000000000000,-0.00003000000000000,-0.00002960000000000,-0.00003160000000000,-0.00000001060000000,0.00000108000000000,0.00002620000000000,0.00004540000000000,-0.00000456000000000,-0.00005700000000000,0.00000566000000000,0.00021500000000000,-0.00096500000000000,-0.00000647000000000,0.00065800000000000,0.01590000000000000,0.01840000000000000
23200.00000000000000000,-0.00003030000000000,-0.00002990000000000,-0.00003190000000000,-0.00000000946000000,0.00000118000000000,0.00002620000000000,0.00004550000000000,-0.00000478000000000,-0.00005740000000000,0.00000554000000000,0.00021800000000000,-0.00097500000000000,-0.00000575000000000,0.00071600000000000,0.01600000000000000,0.01850000000000000
23300.00000000000000000,-0.00003030000000000,-0.00002990000000000,-0.00003190000000000,-0.00000000823000000,0.00000122000000000,0.00002630000000000,0.00004560000000000,-0.00000477000000000,-0.00005740000000000,0.00000396000000000,0.00021800000000000,-0.00097400000000000,-0.00000500000000000,0.00074500000000000,0.01600000000000000,0.01850000000000000
23400.00000000000000000,-0.00003040000000000,-0.00003010000000000,-0.00003210000000000,-0.00000000685000000,0.00000129000000000,0.00002630000000000,0.00004570000000000,-0.00000486000000000,-0.00005760000000000,0.00000345000000000,0.00022000000000000,-0.00097900000000000,-0.00000417000000000,0.00078700000000000,0.01600000000000000,0.01850000000000000
23500.00000000000000000,-0.00003050000000000,-0.00003020000000000,-0.00003210000000000,-0.00000000599000000,0.00000134000000000,0.00002640000000000,0.00004580000000000,-0.00000489000000000,-0.00005780000000000,0.00000197000000000,0.00022100000000000,-0.00098100000000000,-0.00000365000000000,0.00081300000000000,0.01600000000000000,0.01860000000000000
23600.00000000000000000,-0.00003080000000000,-0.00003050000000000,-0.00003250000000000,-0.00000000614000000,0.00000134000000000,0.00002650000000000,0.00004610000000000,-0.00000507000000000,-0.00005830000000000,0.00000271000000000,0.00022300000000000,-0.00099200000000000,-0.00000374000000000,0.00081600000000000,0.01610000000000000,0.01870000000000000
23700.00000000000000000,-0.00003110000000000,-0.00003080000000000,-0.00003280000000000,-0.00000000659000000,0.00000135000000000,0.00002670000000000,0.00004630000000000,-0.00000521000000000,-0.00005870000000000,0.00000306000000000,0.00022500000000000,-0.00100000000000000,-0.00000401000000000,0.00081800000000000,0.01620000000000000,0.01880000000000000
23800.00000000000000000,-0.00003150000000000,-0.00003110000000000,-0.00003310000000000,-0.00000000758000000,0.00000132000000000,0.00002690000000000,0.00004660000000000,-0.00000538000000000,-0.00005920000000000,0.00000419000000000,0.00022700000000000,-0.00101000000000000,-0.00000461000000000,0.00080600000000000,0.01630000000000000,0.01890000000000000
23900.00000000000000000,-0.00003160000000000,-0.00003120000000000,-0.00003330000000000,-0.00000000868000000,0.00000127000000000,0.00002710000000000,0.00004700000000000,-0.00000534000000000,-0.00005960000000000,0.00000391000000000,0.00022800000000000,-0.00102000000000000,-0.00000528000000000,0.00077200000000000,0.01650000000000000,0.01900000000000000
24000.00000000000000000,-0.00003140000000000,-0.00003110000000000,-0.00003310000000000,-0.00000000963000000,0.00000120000000000,0.00002720000000000,0.00004720000000000,-0.00000505000000000,-0.00005950000000000,0.00000189000000000,0.00022600000000000,-0.00101000000000000,-0.00000586000000000,0.00073300000000000,0.01650000000000000,0.01910000000000000
24100.00000000000000000,-0.00003100000000000,-0.00003060000000000,-0.00003260000000000,-0.00000001100000000,0.00000112000000000,0.00002730000000000,0.00004730000000000,-0.00000448000000000,-0.00005910000000000,-0.00000140000000000,0.00022200000000000,-0.00099000000000000,-0.00000668000000000,0.00068400000000000,0.01660000000000000,0.01920000000000000
24200.00000000000000000,-0.00003040000000000,-0.00003000000000000,-0.00003200000000000,-0.00000001260000000,0.00000101000000000,0.00002730000000000,0.00004740000000000,-0.00000385000000000,-0.00005850000000000,-0.00000563000000000,0.00021700000000000,-0.00096600000000000,-0.00000764000000000,0.00061500000000000,0.01660000000000000,0.01920000000000000
24300.00000000000000000,-0.00003000000000000,-0.00002960000000000,-0.00003150000000000,-0.00000001530000000,0.00000090300000000,0.00002740000000000,0.00004760000000000,-0.00000329000000000,-0.00005820000000000,-0.00000800000000000,0.00021300000000000,-0.00094900000000000,-0.00000932000000000,0.00054900000000000,0.01670000000000000,0.01930000000000000
24400.00000000000000000,-0.00002940000000000,-0.00002910000000000,-0.00003090000000000,-0.00000001750000000,0.00000077100000000,0.00002750000000000,0.00004770000000000,-0.00000267000000000,-0.00005770000000000,-0.00001160000000000,0.00020800000000000,-0.00092700000000000,-0.00001060000000000,0.00046900000000000,0.01670000000000000,0.01930000000000000
24500.00000000000000000,-0.00002920000000000,-0.00002880000000000,-0.00003070000000000,-0.00000001990000000,0.00000063300000000,0.00002770000000000,0.00004800000000000,-0.00000221000000000,-0.00005770000000000,-0.00001350000000000,0.00020500000000000,-0.00091500000000000,-0.00001210000000000,0.00038500000000000,0.01680000000000000,0.01950000000000000
24600.00000000000000000,-0.00002890000000000,-0.00002860000000000,-0.00003040000000000,-0.00000002260000000,0.00000049100000000,0.00002790000000000,0.00004840000000000,-0.00000173000000000,-0.00005750000000000,-0.00001620000000000,0.00020200000000000,-0.00090200000000000,-0.00001370000000000,0.00029900000000000,0.01700000000000000,0.01960000000000000
24700.00000000000000000,-0.00002870000000000,-0.00002840000000000,-0.00003020000000000,-0.00000002590000000,0.00000030400000000,0.00002810000000000,0.00004870000000000,-0.00000132000000000,-0.00005760000000000,-0.00001730000000000,0.00019900000000000,-0.00089400000000000,-0.00001580000000000,0.00018500000000000,0.01710000000000000,0.01980000000000000
24800.00000000000000000,-0.00002830000000000,-0.00002790000000000,-0.00002970000000000,-0.00000002960000000,0.00000014400000000,0.00002830000000000,0.00004900000000000,-0.00000065500000000,-0.00005730000000000,-0.00002020000000000,0.00019400000000000,-0.00087500000000000,-0.00001800000000000,0.00008780000000000,0.01720000000000000,0.01990000000000000
24900.00000000000000000,-0.00002780000000000,-0.00002740000000000,-0.00002920000000000,-0.00000003240000000,0.00000001910000000,0.00002840000000000,0.00004930000000000,-0.00000003280000000,-0.00005690000000000,-0.00002310000000000,0.00019000000000000,-0.00085600000000000,-0.00001970000000000,0.00001160000000000,0.01730000000000000,0.02000000000000000
25000.00000000000000000,-0.00002730000000000,-0.00002690000000000,-0.00002860000000000,-0.00000003510000000,-0.00000014300000000,0.00002850000000000,0.00004940000000000,0.00000058000000000,-0.00005640000000000,-0.00002710000000000,0.00018500000000000,-0.00083400000000000,-0.00002130000000000,-0.00008670000000000,0.01730000000000000,0.02000000000000000
25100.00000000000000000,-0.00002660000000000,-0.00002630000000000,-0.00002790000000000,-0.00000003710000000,-0.00000027400000000,0.00002860000000000,0.00004960000000000,0.00000138000000000,-0.00005590000000000,-0.00003110000000000,0.00018000000000000,-0.00080800000000000,-0.00002250000000000,-0.00016700000000000,0.01740000000000000,0.02010000000000000
25200.00000000000000000,-0.00002610000000000,-0.00002570000000000,-0.00002730000000000,-0.00000003890000000,-0.00000039200000000,0.00002870000000000,0.00004970000000000,0.00000198000000000,-0.00005540000000000,-0.00003550000000000,0.00017500000000000,-0.00078600000000000,-0.00002360000000000,-0.00023800000000000,0.01740000000000000,0.02010000000000000
25300.00000000000000000,-0.00002570000000000,-0.00002540000000000,-0.00002690000000000,-0.00000004150000000,-0.00000051300000000,0.00002880000000000,0.00004990000000000,0.00000250000000000,-0.00005510000000000,-0.00003730000000000,0.00017200000000000,-0.00077100000000000,-0.00002520000000000,-0.00031200000000000,0.01750000000000000,0.02020000000000000
25400.00000000000000000,-0.00002550000000000,-0.00002520000000000,-0.00002670000000000,-0.00000004390000000,-0.00000059700000000,0.00002890000000000,0.00005020000000000,0.00000286000000000,-0.00005510000000000,-0.00003950000000000,0.00017000000000000,-0.00076200000000000,-0.00002670000000000,-0.00036300000000000,0.01760000000000000,0.02030000000000000
25500.00000000000000000,-0.00002560000000000,-0.00002520000000000,-0.00002670000000000,-0.00000004590000000,-0.00000066500000000,0.00002910000000000,0.00005050000000000,0.00000301000000000,-0.00005530000000000,-0.00003970000000000,0.00017000000000000,-0.00076300000000000,-0.00002790000000000,-0.00040400000000000,0.01770000000000000,0.02050000000000000
25600.00000000000000000,-0.00002570000000000,-0.00002540000000000,-0.00002690000000000,-0.00000004700000000,-0.00000072800000000,0.00002930000000000,0.00005080000000000,0.00000300000000000,-0.00005560000000000,-0.00004090000000000,0.00017100000000000,-0.00076700000000000,-0.00002860000000000,-0.00044300000000000,0.01780000000000000,0.02060000000000000
25700.00000000000000000,-0.00002590000000000,-0.00002560000000000,-0.00002720000000000,-0.00000004740000000,-0.00000074400000000,0.00002950000000000,0.00005110000000000,0.00000294000000000,-0.00005600000000000,-0.00004050000000000,0.00017200000000000,-0.00077400000000000,-0.00002880000000000,-0.00045200000000000,0.01790000000000000,0.02070000000000000
25800.00000000000000000,-0.00002600000000000,-0.00002560000000000,-0.00002720000000000,-0.00000004740000000,-0.00000071900000000,0.00002960000000000,0.00005120000000000,0.00000300000000000,-0.00005620000000000,-0.00004240000000000,0.00017200000000000,-0.00077300000000000,-0.00002880000000000,-0.00043700000000000,0.01800000000000000,0.02080000000000000
25900.00000000000000000,-0.00002620000000000,-0.00002580000000000,-0.00002740000000000,-0.00000004660000000,-0.00000069400000000,0.00002970000000000,0.00005140000000000,0.00000290000000000,-0.00005640000000000,-0.00004260000000000,0.00017400000000000,-0.00077900000000000,-0.00002840000000000,-0.00042200000000000,0.01800000000000000,0.02080000000000000
26000.00000000000000000,-0.00002620000000000,-0.00002590000000000,-0.00002740000000000,-0.00000004560000000,-0.00000062400000000,0.00002970000000000,0.00005150000000000,0.00000288000000000,-0.00005650000000000,-0.00004420000000000,0.00017500000000000,-0.00078000000000000,-0.00002770000000000,-0.00038000000000000,0.01810000000000000,0.02090000000000000
26100.00000000000000000,-0.00002650000000000,-0.00002620000000000,-0.00002770000000000,-0.00000004390000000,-0.00000055200000000,0.00002980000000000,0.00005160000000000,0.00000264000000000,-0.00005690000000000,-0.00004410000000000,0.00017700000000000,-0.00079000000000000,-0.00002670000000000,-0.00033600000000000,0.01810000000000000,0.02090000000000000
26200.00000000000000000,-0.00002700000000000,-0.00002660000000000,-0.00002820000000000,-0.00000004160000000,-0.00000044000000000,0.00002980000000000,0.00005170000000000,0.00000224000000000,-0.00005750000000000,-0.00004420000000000,0.00018100000000000,-0.00080500000000000,-0.00002530000000000,-0.00026800000000000,0.01810000000000000,0.02100000000000000
26300.00000000000000000,-0.00002770000000000,-0.00002730000000000,-0.00002900000000000,-0.00000003910000000,-0.00000030400000000,0.00002990000000000,0.00005190000000000,0.00000164000000000,-0.00005830000000000,-0.00004240000000000,0.00018700000000000,-0.00082900000000000,-0.00002380000000000,-0.00018500000000000,0.01820000000000000,0.02100000000000000
26400.00000000000000000,-0.00002850000000000,-0.00002820000000000,-0.00002990000000000,-0.00000003690000000,-0.00000016300000000,0.00003010000000000,0.00005210000000000,0.00000088600000000,-0.00005930000000000,-0.00004010000000000,0.00019400000000000,-0.00086100000000000,-0.00002240000000000,-0.00009900000000000,0.01830000000000000,0.02110000000000000
26500.00000000000000000,-0.00002940000000000,-0.00002910000000000,-0.00003090000000000,-0.00000003380000000,0.00000001030000000,0.00003020000000000,0.00005230000000000,0.00000004730000000,-0.00006030000000000,-0.00003710000000000,0.00020100000000000,-0.00089400000000000,-0.00002060000000000,0.00000628000000000,0.01840000000000000,0.02120000000000000
26600.00000000000000000,-0.00003040000000000,-0.00003000000000000,-0.00003190000000000,-0.00000003080000000,0.00000020400000000,0.00003030000000000,0.00005260000000000,-0.00000084500000000,-0.00006150000000000,-0.00003440000000000,0.00021000000000000,-0.00093000000000000,-0.00001870000000000,0.00012400000000000,0.01840000000000000,0.02130000000000000
26700.00000000000000000,-0.00003110000000000,-0.00003070000000000,-0.00003270000000000,-0.00000002700000000,0.00000038100000000,0.00003040000000000,0.00005270000000000,-0.00000147000000000,-0.00006230000000000,-0.00003260000000000,0.00021600000000000,-0.00095500000000000,-0.00001640000000000,0.00023200000000000,0.01850000000000000,0.02140000000000000
26800.00000000000000000,-0.00003200000000000,-0.00003150000000000,-0.00003350000000000,-0.00000002320000000,0.00000056700000000,0.00003050000000000,0.00005290000000000,-0.00000222000000000,-0.00006330000000000,-0.00003090000000000,0.00022300000000000,-0.00098500000000000,-0.00001410000000000,0.00034500000000000,0.01860000000000000,0.02140000000000000
26900.00000000000000000,-0.00003250000000000,-0.00003210000000000,-0.00003410000000000,-0.00000001920000000,0.00000077300000000,0.00003050000000000,0.00005290000000000,-0.00000278000000000,-0.00006390000000000,-0.00003020000000000,0.00022900000000000,-0.00100000000000000,-0.00001170000000000,0.00047000000000000,0.01860000000000000,0.02150000000000000
27000.00000000000000000,-0.00003320000000000,-0.00003270000000000,-0.00003480000000000,-0.00000001590000000,0.00000094300000000,0.00003050000000000,0.00005290000000000,-0.00000343000000000,-0.00006450000000000,-0.00002900000000000,0.00023500000000000,-0.00103000000000000,-0.00000967000000000,0.00057400000000000,0.01860000000000000,0.02150000000000000
27100.00000000000000000,-0.00003380000000000,-0.00003340000000000,-0.00003550000000000,-0.00000001300000000,0.00000111000000000,0.00003060000000000,0.00005300000000000,-0.00000404000000000,-0.00006520000000000,-0.00002760000000000,0.00024100000000000,-0.00105000000000000,-0.00000789000000000,0.00067300000000000,0.01860000000000000,0.02150000000000000
27200.00000000000000000,-0.00003450000000000,-0.00003410000000000,-0.00003630000000000,-0.00000001020000000,0.00000127000000000,0.00003070000000000,0.00005320000000000,-0.00000470000000000,-0.00006610000000000,-0.00002580000000000,0.00024800000000000,-0.00108000000000000,-0.00000619000000000,0.00077200000000000,0.01870000000000000,0.02160000000000000
27300.00000000000000000,-0.00003530000000000,-0.00003490000000000,-0.00003710000000000,-0.00000000718000000,0.00000139000000000,0.00003080000000000,0.00005350000000000,-0.00000534000000000,-0.00006710000000000,-0.00002390000000000,0.00025400000000000,-0.00111000000000000,-0.00000437000000000,0.00084300000000000,0.01880000000000000,0.02170000000000000
27400.00000000000000000,-0.00003600000000000,-0.00003550000000000,-0.00003780000000000,-0.00000000488000000,0.00000151000000000,0.00003100000000000,0.00005380000000000,-0.00000588000000000,-0.00006790000000000,-0.00002230000000000,0.00026000000000000,-0.00113000000000000,-0.00000297000000000,0.00091600000000000,0.01880000000000000,0.02180000000000000
27500.00000000000000000,-0.00003660000000000,-0.00003610000000000,-0.00003850000000000,-0.00000000357000000,0.00000160000000000,0.00003110000000000,0.00005400000000000,-0.00000638000000000,-0.00006870000000000,-0.00002080000000000,0.00026500000000000,-0.00115000000000000,-0.00000217000000000,0.00097200000000000,0.01890000000000000,0.02190000000000000
27600.00000000000000000,-0.00003680000000000,-0.00003640000000000,-0.00003870000000000,-0.00000000284000000,0.00000165000000000,0.00003120000000000,0.00005420000000000,-0.00000651000000000,-0.00006900000000000,-0.00002130000000000,0.00026700000000000,-0.00116000000000000,-0.00000173000000000,0.00100000000000000,0.01900000000000000,0.02200000000000000
27700.00000000000000000,-0.00003700000000000,-0.00003650000000000,-0.00003880000000000,-0.00000000236000000,0.00000167000000000,0.00003130000000000,0.00005430000000000,-0.00000655000000000,-0.00006920000000000,-0.00002240000000000,0.00026800000000000,-0.00116000000000000,-0.00000144000000000,0.00101000000000000,0.01900000000000000,0.02200000000000000
27800.00000000000000000,-0.00003690000000000,-0.00003640000000000,-0.00003870000000000,-0.00000000249000000,0.00000165000000000,0.00003140000000000,0.00005440000000000,-0.00000636000000000,-0.00006920000000000,-0.00002420000000000,0.00026700000000000,-0.00116000000000000,-0.00000151000000000,0.00101000000000000,0.01910000000000000,0.02210000000000000
27900.00000000000000000,-0.00003660000000000,-0.00003610000000000,-0.00003850000000000,-0.00000000365000000,0.00000160000000000,0.00003140000000000,0.00005460000000000,-0.00000605000000000,-0.00006910000000000,-0.00002670000000000,0.00026500000000000,-0.00115000000000000,-0.00000222000000000,0.00097000000000000,0.01910000000000000,0.02210000000000000
28000.00000000000000000,-0.00003630000000000,-0.00003590000000000,-0.00003820000000000,-0.00000000572000000,0.00000152000000000,0.00003160000000000,0.00005480000000000,-0.00000563000000000,-0.00006890000000000,-0.00002890000000000,0.00026200000000000,-0.00113000000000000,-0.00000348000000000,0.00092400000000000,0.01920000000000000,0.02220000000000000
28100.00000000000000000,-0.00003610000000000,-0.00003560000000000,-0.00003790000000000,-0.00000000857000000,0.00000140000000000,0.00003170000000000,0.00005500000000000,-0.00000524000000000,-0.00006870000000000,-0.00003110000000000,0.00025900000000000,-0.00112000000000000,-0.00000521000000000,0.00085100000000000,0.01930000000000000,0.02230000000000000
28200.00000000000000000,-0.00003590000000000,-0.00003540000000000,-0.00003770000000000,-0.00000001130000000,0.00000126000000000,0.00003190000000000,0.00005530000000000,-0.00000486000000000,-0.00006870000000000,-0.00003280000000000,0.00025700000000000,-0.00111000000000000,-0.00000688000000000,0.00076900000000000,0.01940000000000000,0.02240000000000000
28300.00000000000000000,-0.00003550000000000,-0.00003500000000000,-0.00003720000000000,-0.00000001460000000,0.00000112000000000,0.00003200000000000,0.00005560000000000,-0.00000427000000000,-0.00006840000000000,-0.00003600000000000,0.00025200000000000,-0.00110000000000000,-0.00000889000000000,0.00067900000000000,0.01950000000000000,0.02250000000000000
28400.00000000000000000,-0.00003500000000000,-0.00003460000000000,-0.00003680000000000,-0.00000001880000000,0.00000091500000000,0.00003220000000000,0.00005590000000000,-0.00000363000000000,-0.00006820000000000,-0.00003900000000000,0.00024700000000000,-0.00108000000000000,-0.00001140000000000,0.00055600000000000,0.01960000000000000,0.02270000000000000
28500.00000000000000000,-0.00003430000000000,-0.00003390000000000,-0.00003600000000000,-0.00000002330000000,0.00000071300000000,0.00003240000000000,0.00005610000000000,-0.00000277000000000,-0.00006760000000000,-0.00004350000000000,0.00024000000000000,-0.00105000000000000,-0.00001410000000000,0.00043300000000000,0.01970000000000000,0.02280000000000000
28600.00000000000000000,-0.00003360000000000,-0.00003310000000000,-0.00003520000000000,-0.00000002770000000,0.00000050900000000,0.00003250000000000,0.00005640000000000,-0.00000185000000000,-0.00006700000000000,-0.00004770000000000,0.00023400000000000,-0.00102000000000000,-0.00001680000000000,0.00031000000000000,0.01980000000000000,0.02290000000000000
28700.00000000000000000,-0.00003270000000000,-0.00003220000000000,-0.00003420000000000,-0.00000003250000000,0.00000028300000000,0.00003270000000000,0.00005660000000000,-0.00000079900000000,-0.00006610000000000,-0.00005300000000000,0.00022500000000000,-0.00098200000000000,-0.00001980000000000,0.00017200000000000,0.01990000000000000,0.02290000000000000
28800.00000000000000000,-0.00003180000000000,-0.00003140000000000,-0.00003330000000000,-0.00000003730000000,0.00000005210000000,0.00003280000000000,0.00005680000000000,0.00000019700000000,-0.00006530000000000,-0.00005800000000000,0.00021800000000000,-0.00094800000000000,-0.00002270000000000,0.00003170000000000,0.01990000000000000,0.02300000000000000
28900.00000000000000000,-0.00003110000000000,-0.00003060000000000,-0.00003250000000000,-0.00000004210000000,-0.00000014200000000,0.00003290000000000,0.00005700000000000,0.00000111000000000,-0.00006470000000000,-0.00006280000000000,0.00021100000000000,-0.00091700000000000,-0.00002560000000000,-0.00008660000000000,0.02000000000000000,0.02310000000000000
29000.00000000000000000,-0.00003050000000000,-0.00003000000000000,-0.00003180000000000,-0.00000004630000000,-0.00000034300000000,0.00003300000000000,0.00005720000000000,0.00000187000000000,-0.00006420000000000,-0.00006680000000000,0.00020500000000000,-0.00089200000000000,-0.00002820000000000,-0.00020900000000000,0.02010000000000000,0.02320000000000000
29100.00000000000000000,-0.00003010000000000,-0.00002970000000000,-0.00003150000000000,-0.00000005050000000,-0.00000051900000000,0.00003320000000000,0.00005760000000000,0.00000241000000000,-0.00006400000000000,-0.00006900000000000,0.00020200000000000,-0.00087900000000000,-0.00003070000000000,-0.00031500000000000,0.02020000000000000,0.02330000000000000
29200.00000000000000000,-0.00002970000000000,-0.00002930000000000,-0.00003100000000000,-0.00000005430000000,-0.00000065400000000,0.00003340000000000,0.00005790000000000,0.00000303000000000,-0.00006380000000000,-0.00007170000000000,0.00019800000000000,-0.00086200000000000,-0.00003300000000000,-0.00039800000000000,0.02030000000000000,0.02350000000000000
29300.00000000000000000,-0.00002960000000000,-0.00002910000000000,-0.00003090000000000,-0.00000005740000000,-0.00000077600000000,0.00003360000000000,0.00005820000000000,0.00000339000000000,-0.00006380000000000,-0.00007370000000000,0.00019600000000000,-0.00085400000000000,-0.00003490000000000,-0.00047200000000000,0.02040000000000000,0.02360000000000000
29400.00000000000000000,-0.00002940000000000,-0.00002890000000000,-0.00003070000000000,-0.00000005920000000,-0.00000085800000000,0.00003370000000000,0.00005840000000000,0.00000369000000000,-0.00006370000000000,-0.00007630000000000,0.00019500000000000,-0.00084500000000000,-0.00003600000000000,-0.00052200000000000,0.02050000000000000,0.02370000000000000
29500.00000000000000000,-0.00002930000000000,-0.00002880000000000,-0.00003050000000000,-0.00000006020000000,-0.00000089600000000,0.00003380000000000,0.00005860000000000,0.00000391000000000,-0.00006370000000000,-0.00007810000000000,0.00019400000000000,-0.00083900000000000,-0.00003660000000000,-0.00054500000000000,0.02060000000000000,0.02380000000000000
29600.00000000000000000,-0.00002920000000000,-0.00002880000000000,-0.00003040000000000,-0.00000006040000000,-0.00000090500000000,0.00003390000000000,0.00005870000000000,0.00000407000000000,-0.00006370000000000,-0.00008040000000000,0.00019300000000000,-0.00083400000000000,-0.00003670000000000,-0.00055000000000000,0.02060000000000000,0.02380000000000000
29700.00000000000000000,-0.00002930000000000,-0.00002890000000000,-0.00003060000000000,-0.00000005980000000,-0.00000088100000000,0.00003400000000000,0.00005890000000000,0.00000406000000000,-0.00006390000000000,-0.00008140000000000,0.00019400000000000,-0.00083700000000000,-0.00003630000000000,-0.00053600000000000,0.02070000000000000,0.02390000000000000
29800.00000000000000000,-0.00002960000000000,-0.00002920000000000,-0.00003090000000000,-0.00000005840000000,-0.00000080100000000,0.00003410000000000,0.00005900000000000,0.00000380000000000,-0.00006430000000000,-0.00008150000000000,0.00019700000000000,-0.00084800000000000,-0.00003550000000000,-0.00048700000000000,0.02070000000000000,0.02390000000000000
29900.00000000000000000,-0.00003020000000000,-0.00002970000000000,-0.00003150000000000,-0.00000005560000000,-0.00000069000000000,0.00003420000000000,0.00005920000000000,0.00000334000000000,-0.00006500000000000,-0.00008090000000000,0.00020100000000000,-0.00086700000000000,-0.00003380000000000,-0.00042000000000000,0.02080000000000000,0.02400000000000000
30000.00000000000000000,-0.00003100000000000,-0.00003050000000000,-0.00003240000000000,-0.00000005210000000,-0.00000052100000000,0.00003430000000000,0.00005940000000000,0.00000262000000000,-0.00006600000000000,-0.00007890000000000,0.00020800000000000,-0.00089500000000000,-0.00003170000000000,-0.00031700000000000,0.02090000000000000,0.02410000000000000
30100.00000000000000000,-0.00003190000000000,-0.00003140000000000,-0.00003330000000000,-0.00000004830000000,-0.00000034500000000,0.00003440000000000,0.00005960000000000,0.00000182000000000,-0.00006700000000000,-0.00007630000000000,0.00021500000000000,-0.00092800000000000,-0.00002940000000000,-0.00021000000000000,0.02090000000000000,0.02420000000000000
30200.00000000000000000,-0.00003300000000000,-0.00003250000000000,-0.00003440000000000,-0.00000004380000000,-0.00000013000000000,0.00003450000000000,0.00005980000000000,0.00000082900000000,-0.00006820000000000,-0.00007300000000000,0.00022400000000000,-0.00096600000000000,-0.00002660000000000,-0.00007890000000000,0.02100000000000000,0.02430000000000000
30300.00000000000000000,-0.00003400000000000,-0.00003350000000000,-0.00003550000000000,-0.00000003880000000,0.00000011300000000,0.00003460000000000,0.00006000000000000,-0.00000013300000000,-0.00006940000000000,-0.00007000000000000,0.00023300000000000,-0.00100000000000000,-0.00002360000000000,0.00006870000000000,0.02110000000000000,0.02430000000000000
30400.00000000000000000,-0.00003490000000000,-0.00003440000000000,-0.00003650000000000,-0.00000003330000000,0.00000034900000000,0.00003470000000000,0.00006020000000000,-0.00000101000000000,-0.00007050000000000,-0.00006760000000000,0.00024100000000000,-0.00104000000000000,-0.00002020000000000,0.00021200000000000,0.02110000000000000,0.02440000000000000
30500.00000000000000000,-0.00003590000000000,-0.00003540000000000,-0.00003750000000000,-0.00000002740000000,0.00000058800000000,0.00003480000000000,0.00006040000000000,-0.00000186000000000,-0.00007160000000000,-0.00006500000000000,0.00025000000000000,-0.00107000000000000,-0.00001670000000000,0.00035700000000000,0.02120000000000000,0.02450000000000000
30600.00000000000000000,-0.00003670000000000,-0.00003620000000000,-0.00003850000000000,-0.00000002170000000,0.00000084600000000,0.00003490000000000,0.00006040000000000,-0.00000271000000000,-0.00007250000000000,-0.00006300000000000,0.00025800000000000,-0.00110000000000000,-0.00001320000000000,0.00051500000000000,0.02120000000000000,0.02450000000000000
30700.00000000000000000,-0.00003770000000000,-0.00003720000000000,-0.00003950000000000,-0.00000001620000000,0.00000108000000000,0.00003490000000000,0.00006060000000000,-0.00000364000000000,-0.00007360000000000,-0.00006010000000000,0.00026700000000000,-0.00114000000000000,-0.00000985000000000,0.00065800000000000,0.02120000000000000,0.02460000000000000
30800.00000000000000000,-0.00003860000000000,-0.00003800000000000,-0.00004040000000000,-0.00000001130000000,0.00000130000000000,0.00003500000000000,0.00006070000000000,-0.00000445000000000,-0.00007450000000000,-0.00005790000000000,0.00027500000000000,-0.00117000000000000,-0.00000690000000000,0.00079000000000000,0.02130000000000000,0.02460000000000000
30900.00000000000000000,-0.00003940000000000,-0.00003890000000000,-0.00004130000000000,-0.00000000686000000,0.00000150000000000,0.00003510000000000,0.00006100000000000,-0.00000517000000000,-0.00007550000000000,-0.00005540000000000,0.00028300000000000,-0.00120000000000000,-0.00000417000000000,0.00091400000000000,0.02140000000000000,0.02470000000000000
31000.00000000000000000,-0.00004010000000000,-0.00003960000000000,-0.00004210000000000,-0.00000000295000000,0.00000165000000000,0.00003530000000000,0.00006130000000000,-0.00000575000000000,-0.00007650000000000,-0.00005370000000000,0.00029000000000000,-0.00123000000000000,-0.00000179000000000,0.00101000000000000,0.02150000000000000,0.02480000000000000
31100.00000000000000000,-0.00004070000000000,-0.00004020000000000,-0.00004270000000000,-0.00000000012700000,0.00000177000000000,0.00003540000000000,0.00006150000000000,-0.00000621000000000,-0.00007720000000000,-0.00005230000000000,0.00029500000000000,-0.00125000000000000,-0.00000007710000000,0.00108000000000000,0.02150000000000000,0.02490000000000000
31200.00000000000000000,-0.00004120000000000,-0.00004060000000000,-0.00004320000000000,0.00000000150000000,0.00000185000000000,0.00003560000000000,0.00006180000000000,-0.00000654000000000,-0.00007790000000000,-0.00005130000000000,0.00029900000000000,-0.00127000000000000,0.00000091500000000,0.00113000000000000,0.02160000000000000,0.02500000000000000
31300.00000000000000000,-0.00004140000000000,-0.00004080000000000,-0.00004340000000000,0.00000000221000000,0.00000188000000000,0.00003570000000000,0.00006200000000000,-0.00000662000000000,-0.00007820000000000,-0.00005140000000000,0.00030100000000000,-0.00128000000000000,0.00000135000000000,0.00115000000000000,0.02170000000000000,0.02520000000000000
31400.00000000000000000,-0.00004150000000000,-0.00004090000000000,-0.00004350000000000,0.00000000163000000,0.00000186000000000,0.00003590000000000,0.00006230000000000,-0.00000652000000000,-0.00007850000000000,-0.00005180000000000,0.00030100000000000,-0.00128000000000000,0.00000099200000000,0.00113000000000000,0.02180000000000000,0.02530000000000000
31500.00000000000000000,-0.00004130000000000,-0.00004070000000000,-0.00004330000000000,0.00000000031400000,0.00000181000000000,0.00003610000000000,0.00006260000000000,-0.00000615000000000,-0.00007840000000000,-0.00005400000000000,0.00029900000000000,-0.00127000000000000,0.00000019100000000,0.00110000000000000,0.02190000000000000,0.02540000000000000
31600.00000000000000000,-0.00004090000000000,-0.00004030000000000,-0.00004290000000000,-0.00000000176000000,0.00000171000000000,0.00003620000000000,0.00006290000000000,-0.00000562000000000,-0.00007820000000000,-0.00005670000000000,0.00029500000000000,-0.00125000000000000,-0.00000107000000000,0.00104000000000000,0.02200000000000000,0.02550000000000000
31700.00000000000000000,-0.00004040000000000,-0.00003980000000000,-0.00004230000000000,-0.00000000547000000,0.00000156000000000,0.00003640000000000,0.00006320000000000,-0.00000491000000000,-0.00007780000000000,-0.00005980000000000,0.00029000000000000,-0.00123000000000000,-0.00000333000000000,0.00094900000000000,0.02210000000000000,0.02560000000000000
31800.00000000000000000,-0.00003970000000000,-0.00003910000000000,-0.00004160000000000,-0.00000001030000000,0.00000137000000000,0.00003660000000000,0.00006350000000000,-0.00000402000000000,-0.00007730000000000,-0.00006340000000000,0.00028300000000000,-0.00120000000000000,-0.00000626000000000,0.00083100000000000,0.02230000000000000,0.02570000000000000
31900.00000000000000000,-0.00003900000000000,-0.00003840000000000,-0.00004080000000000,-0.00000001600000000,0.00000115000000000,0.00003680000000000,0.00006380000000000,-0.00000308000000000,-0.00007670000000000,-0.00006720000000000,0.00027600000000000,-0.00117000000000000,-0.00000970000000000,0.00070000000000000,0.02240000000000000,0.02590000000000000
32000.00000000000000000,-0.00003810000000000,-0.00003760000000000,-0.00003990000000000,-0.00000002190000000,0.00000091100000000,0.00003700000000000,0.00006410000000000,-0.00000199000000000,-0.00007600000000000,-0.00007210000000000,0.00026800000000000,-0.00114000000000000,-0.00001330000000000,0.00055400000000000,0.02250000000000000,0.02600000000000000
32100.00000000000000000,-0.00003730000000000,-0.00003680000000000,-0.00003900000000000,-0.00000002830000000,0.00000065500000000,0.00003720000000000,0.00006450000000000,-0.00000090900000000,-0.00007540000000000,-0.00007610000000000,0.00026000000000000,-0.00111000000000000,-0.00001720000000000,0.00039900000000000,0.02260000000000000,0.02620000000000000
32200.00000000000000000,-0.00003650000000000,-0.00003590000000000,-0.00003810000000000,-0.00000003520000000,0.00000038200000000,0.00003750000000000,0.00006490000000000,0.00000020200000000,-0.00007480000000000,-0.00008040000000000,0.00025200000000000,-0.00107000000000000,-0.00002140000000000,0.00023300000000000,0.02280000000000000,0.02630000000000000
32300.00000000000000000,-0.00003560000000000,-0.00003510000000000,-0.00003720000000000,-0.00000004230000000,0.00000013900000000,0.00003770000000000,0.00006530000000000,0.00000134000000000,-0.00007410000000000,-0.00008470000000000,0.00024400000000000,-0.00104000000000000,-0.00002570000000000,0.00008430000000000,0.02290000000000000,0.02650000000000000
32400.00000000000000000,-0.00003480000000000,-0.00003430000000000,-0.00003630000000000,-0.00000004890000000,-0.00000011000000000,0.00003790000000000,0.00006570000000000,0.00000236000000000,-0.00007350000000000,-0.00008870000000000,0.00023600000000000,-0.00101000000000000,-0.00002970000000000,-0.00006660000000000,0.02310000000000000,0.02660000000000000
32500.00000000000000000,-0.00003400000000000,-0.00003350000000000,-0.00003550000000000,-0.00000005490000000,-0.00000034200000000,0.00003810000000000,0.00006610000000000,0.00000339000000000,-0.00007290000000000,-0.00009310000000000,0.00022900000000000,-0.00097700000000000,-0.00003340000000000,-0.00020800000000000,0.02320000000000000,0.02680000000000000
32600.00000000000000000,-0.00003330000000000,-0.00003280000000000,-0.00003470000000000,-0.00000006020000000,-0.00000052900000000,0.00003840000000000,0.00006650000000000,0.00000436000000000,-0.00007240000000000,-0.00009660000000000,0.00022300000000000,-0.00095000000000000,-0.00003660000000000,-0.00032200000000000,0.02330000000000000,0.02700000000000000
32700.00000000000000000,-0.00003270000000000,-0.00003220000000000,-0.00003410000000000,-0.00000006470000000,-0.00000068500000000,0.00003860000000000,0.00006690000000000,0.00000522000000000,-0.00007200000000000,-0.00010000000000000,0.00021800000000000,-0.00092500000000000,-0.00003930000000000,-0.00041700000000000,0.02350000000000000,0.02710000000000000
32800.00000000000000000,-0.00003230000000000,-0.00003180000000000,-0.00003360000000000,-0.00000006830000000,-0.00000081000000000,0.00003880000000000,0.00006720000000000,0.00000581000000000,-0.00007180000000000,-0.00010200000000000,0.00021500000000000,-0.00091000000000000,-0.00004150000000000,-0.00049300000000000,0.02360000000000000,0.02720000000000000
32900.00000000000000000,-0.00003210000000000,-0.00003160000000000,-0.00003340000000000,-0.00000007030000000,-0.00000087600000000,0.00003890000000000,0.00006750000000000,0.00000620000000000,-0.00007170000000000,-0.00010400000000000,0.00021300000000000,-0.00090100000000000,-0.00004280000000000,-0.00053300000000000,0.02370000000000000,0.02740000000000000
33000.00000000000000000,-0.00003210000000000,-0.00003160000000000,-0.00003340000000000,-0.00000007120000000,-0.00000089000000000,0.00003910000000000,0.00006780000000000,0.00000639000000000,-0.00007190000000000,-0.00010500000000000,0.00021300000000000,-0.00090000000000000,-0.00004330000000000,-0.00054200000000000,0.02380000000000000,0.02750000000000000
33100.00000000000000000,-0.00003230000000000,-0.00003180000000000,-0.00003370000000000,-0.00000007060000000,-0.00000086900000000,0.00003930000000000,0.00006810000000000,0.00000634000000000,-0.00007230000000000,-0.00010500000000000,0.00021400000000000,-0.00090800000000000,-0.00004290000000000,-0.00052900000000000,0.02390000000000000,0.02760000000000000
33200.00000000000000000,-0.00003270000000000,-0.00003210000000000,-0.00003400000000000,-0.00000006880000000,-0.00000078300000000,0.00003950000000000,0.00006850000000000,0.00000618000000000,-0.00007290000000000,-0.00010400000000000,0.00021700000000000,-0.00092000000000000,-0.00004180000000000,-0.00047600000000000,0.02400000000000000,0.02780000000000000
33300.00000000000000000,-0.00003330000000000,-0.00003280000000000,-0.00003470000000000,-0.00000006520000000,-0.00000065000000000,0.00003970000000000,0.00006880000000000,0.00000572000000000,-0.00007370000000000,-0.00010200000000000,0.00022200000000000,-0.00094200000000000,-0.00003970000000000,-0.00039500000000000,0.02410000000000000,0.02790000000000000
33400.00000000000000000,-0.00003400000000000,-0.00003350000000000,-0.00003550000000000,-0.00000006060000000,-0.00000047700000000,0.00003990000000000,0.00006910000000000,0.00000512000000000,-0.00007460000000000,-0.00010000000000000,0.00022800000000000,-0.00096900000000000,-0.00003680000000000,-0.00029000000000000,0.02420000000000000,0.02800000000000000
33500.00000000000000000,-0.00003490000000000,-0.00003440000000000,-0.00003640000000000,-0.00000005500000000,-0.00000026700000000,0.00004000000000000,0.00006940000000000,0.00000438000000000,-0.00007570000000000,-0.00009730000000000,0.00023600000000000,-0.00100000000000000,-0.00003350000000000,-0.00016200000000000,0.02430000000000000,0.02810000000000000
33600.00000000000000000,-0.00003590000000000,-0.00003540000000000,-0.00003750000000000,-0.00000004860000000,-0.00000002800000000,0.00004020000000000,0.00006960000000000,0.00000350000000000,-0.00007690000000000,-0.00009400000000000,0.00024400000000000,-0.00104000000000000,-0.00002960000000000,-0.00001700000000000,0.02440000000000000,0.02820000000000000
33700.00000000000000000,-0.00003690000000000,-0.00003640000000000,-0.00003850000000000,-0.00000004150000000,0.00000023000000000,0.00004030000000000,0.00006990000000000,0.00000261000000000,-0.00007810000000000,-0.00009050000000000,0.00025300000000000,-0.00108000000000000,-0.00002520000000000,0.00014000000000000,0.02450000000000000,0.02830000000000000
33800.00000000000000000,-0.00003800000000000,-0.00003740000000000,-0.00003970000000000,-0.00000003390000000,0.00000050700000000,0.00004050000000000,0.00007020000000000,0.00000167000000000,-0.00007940000000000,-0.00008660000000000,0.00026300000000000,-0.00112000000000000,-0.00002060000000000,0.00030800000000000,0.02460000000000000,0.02850000000000000
33900.00000000000000000,-0.00003910000000000,-0.00003850000000000,-0.00004080000000000,-0.00000002610000000,0.00000076900000000,0.00004070000000000,0.00007050000000000,0.00000072400000000,-0.00008060000000000,-0.00008310000000000,0.00027300000000000,-0.00116000000000000,-0.00001590000000000,0.00046800000000000,0.02470000000000000,0.02860000000000000
34000.00000000000000000,-0.00004010000000000,-0.00003950000000000,-0.00004190000000000,-0.00000001870000000,0.00000104000000000,0.00004080000000000,0.00007070000000000,-0.00000021700000000,-0.00008180000000000,-0.00007950000000000,0.00028200000000000,-0.00120000000000000,-0.00001140000000000,0.00063200000000000,0.02480000000000000,0.02870000000000000
34100.00000000000000000,-0.00004110000000000,-0.00004050000000000,-0.00004300000000000,-0.00000001160000000,0.00000129000000000,0.00004090000000000,0.00007100000000000,-0.00000110000000000,-0.00008300000000000,-0.00007620000000000,0.00029200000000000,-0.00123000000000000,-0.00000707000000000,0.00078200000000000,0.02490000000000000,0.02880000000000000
34200.00000000000000000,-0.00004190000000000,-0.00004130000000000,-0.00004390000000000,-0.00000000532000000,0.00000150000000000,0.00004110000000000,0.00007130000000000,-0.00000179000000000,-0.00008410000000000,-0.00007320000000000,0.00030000000000000,-0.00126000000000000,-0.00000323000000000,0.00091200000000000,0.02500000000000000,0.02890000000000000
34300.00000000000000000,-0.00004270000000000,-0.00004210000000000,-0.00004470000000000,0.00000000003540000,0.00000168000000000,0.00004130000000000,0.00007160000000000,-0.00000236000000000,-0.00008500000000000,-0.00007090000000000,0.00030700000000000,-0.00129000000000000,0.00000002150000000,0.00102000000000000,0.02510000000000000,0.02900000000000000
34400.00000000000000000,-0.00004320000000000,-0.00004260000000000,-0.00004530000000000,0.00000000419000000,0.00000182000000000,0.00004150000000000,0.00007190000000000,-0.00000271000000000,-0.00008580000000000,-0.00006930000000000,0.00031200000000000,-0.00131000000000000,0.00000255000000000,0.00111000000000000,0.02520000000000000,0.02920000000000000
34500.00000000000000000,-0.00004360000000000,-0.00004300000000000,-0.00004570000000000,0.00000000667000000,0.00000189000000000,0.00004170000000000,0.00007230000000000,-0.00000295000000000,-0.00008640000000000,-0.00006820000000000,0.00031600000000000,-0.00133000000000000,0.00000406000000000,0.00115000000000000,0.02530000000000000,0.02930000000000000
34600.00000000000000000,-0.00004380000000000,-0.00004320000000000,-0.00004590000000000,0.00000000786000000,0.00000194000000000,0.00004190000000000,0.00007260000000000,-0.00000297000000000,-0.00008680000000000,-0.00006770000000000,0.00031800000000000,-0.00134000000000000,0.00000478000000000,0.00118000000000000,0.02550000000000000,0.02940000000000000
34700.00000000000000000,-0.00004380000000000,-0.00004320000000000,-0.00004590000000000,0.00000000753000000,0.00000192000000000,0.00004210000000000,0.00007300000000000,-0.00000272000000000,-0.00008700000000000,-0.00006780000000000,0.00031700000000000,-0.00134000000000000,0.00000458000000000,0.00117000000000000,0.02560000000000000,0.02960000000000000
34800.00000000000000000,-0.00004370000000000,-0.00004300000000000,-0.00004580000000000,0.00000000554000000,0.00000185000000000,0.00004240000000000,0.00007350000000000,-0.00000231000000000,-0.00008710000000000,-0.00006870000000000,0.00031600000000000,-0.00133000000000000,0.00000337000000000,0.00113000000000000,0.02580000000000000,0.02980000000000000
34900.00000000000000000,-0.00004330000000000,-0.00004260000000000,-0.00004530000000000,0.00000000206000000,0.00000174000000000,0.00004260000000000,0.00007390000000000,-0.00000164000000000,-0.00008690000000000,-0.00007070000000000,0.00031100000000000,-0.00131000000000000,0.00000125000000000,0.00106000000000000,0.02590000000000000,0.03000000000000000
35000.00000000000000000,-0.00004270000000000,-0.00004210000000000,-0.00004470000000000,-0.00000000279000000,0.00000158000000000,0.00004290000000000,0.00007430000000000,-0.00000083800000000,-0.00008660000000000,-0.00007300000000000,0.00030600000000000,-0.00129000000000000,-0.00000169000000000,0.00096100000000000,0.02610000000000000,0.03010000000000000
35100.00000000000000000,-0.00004200000000000,-0.00004140000000000,-0.00004400000000000,-0.00000000906000000,0.00000137000000000,0.00004310000000000,0.00007480000000000,0.00000015100000000,-0.00008620000000000,-0.00007630000000000,0.00029900000000000,-0.00126000000000000,-0.00000551000000000,0.00083200000000000,0.02620000000000000,0.03030000000000000
35200.00000000000000000,-0.00004120000000000,-0.00004050000000000,-0.00004300000000000,-0.00000001660000000,0.00000113000000000,0.00004340000000000,0.00007520000000000,0.00000131000000000,-0.00008550000000000,-0.00008020000000000,0.00029000000000000,-0.00123000000000000,-0.00001010000000000,0.00069000000000000,0.02640000000000000,0.03050000000000000
35300.00000000000000000,-0.00004020000000000,-0.00003960000000000,-0.00004210000000000,-0.00000002460000000,0.00000087900000000,0.00004370000000000,0.00007570000000000,0.00000253000000000,-0.00008480000000000,-0.00008410000000000,0.00028100000000000,-0.00119000000000000,-0.00001490000000000,0.00053500000000000,0.02660000000000000,0.03070000000000000
35400.00000000000000000,-0.00003930000000000,-0.00003870000000000,-0.00004100000000000,-0.00000003320000000,0.00000060900000000,0.00004400000000000,0.00007620000000000,0.00000380000000000,-0.00008410000000000,-0.00008820000000000,0.00027300000000000,-0.00116000000000000,-0.00002020000000000,0.00037100000000000,0.02670000000000000,0.03090000000000000
35500.00000000000000000,-0.00003830000000000,-0.00003780000000000,-0.00004000000000000,-0.00000004190000000,0.00000034500000000,0.00004420000000000,0.00007670000000000,0.00000506000000000,-0.00008340000000000,-0.00009180000000000,0.00026400000000000,-0.00112000000000000,-0.00002550000000000,0.00021000000000000,0.02690000000000000,0.03110000000000000
35600.00000000000000000,-0.00003750000000000,-0.00003690000000000,-0.00003910000000000,-0.00000005050000000,0.00000008840000000,0.00004450000000000,0.00007710000000000,0.00000623000000000,-0.00008280000000000,-0.00009570000000000,0.00025600000000000,-0.00109000000000000,-0.00003070000000000,0.00005380000000000,0.02710000000000000,0.03130000000000000
35700.00000000000000000,-0.00003660000000000,-0.00003600000000000,-0.00003820000000000,-0.00000005850000000,-0.00000015000000000,0.00004480000000000,0.00007750000000000,0.00000737000000000,-0.00008220000000000,-0.00009940000000000,0.00024800000000000,-0.00105000000000000,-0.00003560000000000,-0.00009110000000000,0.02720000000000000,0.03140000000000000
35800.00000000000000000,-0.00003590000000000,-0.00003530000000000,-0.00003740000000000,-0.00000006570000000,-0.00000035800000000,0.00004500000000000,0.00007800000000000,0.00000843000000000,-0.00008170000000000,-0.00010300000000000,0.00024200000000000,-0.00103000000000000,-0.00003990000000000,-0.00021800000000000,0.02740000000000000,0.03160000000000000
35900.00000000000000000,-0.00003530000000000,-0.00003470000000000,-0.00003670000000000,-0.00000007170000000,-0.00000052700000000,0.00004530000000000,0.00007850000000000,0.00000934000000000,-0.00008130000000000,-0.00010500000000000,0.00023600000000000,-0.00100000000000000,-0.00004360000000000,-0.00032000000000000,0.02760000000000000,0.03180000000000000
36000.00000000000000000,-0.00003490000000000,-0.00003430000000000,-0.00003630000000000,-0.00000007610000000,-0.00000064600000000,0.00004560000000000,0.00007900000000000,0.00001000000000000,-0.00008120000000000,-0.00010700000000000,0.00023300000000000,-0.00098700000000000,-0.00004630000000000,-0.00039300000000000,0.02770000000000000,0.03200000000000000
36100.00000000000000000,-0.00003460000000000,-0.00003410000000000,-0.00003610000000000,-0.00000007890000000,-0.00000071500000000,0.00004580000000000,0.00007940000000000,0.00001050000000000,-0.00008120000000000,-0.00010800000000000,0.00023100000000000,-0.00097900000000000,-0.00004800000000000,-0.00043500000000000,0.02790000000000000,0.03220000000000000
36200.00000000000000000,-0.00003460000000000,-0.00003410000000000,-0.00003610000000000,-0.00000008010000000,-0.00000073900000000,0.00004600000000000,0.00007980000000000,0.00001070000000000,-0.00008140000000000,-0.00010800000000000,0.00023100000000000,-0.00097800000000000,-0.00004870000000000,-0.00044900000000000,0.02800000000000000,0.03230000000000000
36300.00000000000000000,-0.00003490000000000,-0.00003430000000000,-0.00003630000000000,-0.00000007910000000,-0.00000070100000000,0.00004630000000000,0.00008020000000000,0.00001070000000000,-0.00008190000000000,-0.00010700000000000,0.00023200000000000,-0.00098600000000000,-0.00004810000000000,-0.00042700000000000,0.02810000000000000,0.03250000000000000
36400.00000000000000000,-0.00003520000000000,-0.00003460000000000,-0.00003670000000000,-0.00000007640000000,-0.00000061100000000,0.00004650000000000,0.00008060000000000,0.00001060000000000,-0.00008240000000000,-0.00010600000000000,0.00023500000000000,-0.00099900000000000,-0.00004650000000000,-0.00037200000000000,0.02830000000000000,0.03270000000000000
36500.00000000000000000,-0.00003580000000000,-0.00003520000000000,-0.00003730000000000,-0.00000007200000000,-0.00000047800000000,0.00004670000000000,0.00008100000000000,0.00001020000000000,-0.00008330000000000,-0.00010300000000000,0.00024000000000000,-0.00102000000000000,-0.00004380000000000,-0.00029100000000000,0.02840000000000000,0.03280000000000000
36600.00000000000000000,-0.00003650000000000,-0.00003600000000000,-0.00003810000000000,-0.00000006580000000,-0.00000029000000000,0.00004700000000000,0.00008130000000000,0.00000965000000000,-0.00008430000000000,-0.00010000000000000,0.00024600000000000,-0.00105000000000000,-0.00004000000000000,-0.00017700000000000,0.02860000000000000,0.03300000000000000
36700.00000000000000000,-0.00003740000000000,-0.00003680000000000,-0.00003900000000000,-0.00000005820000000,-0.00000005870000000,0.00004720000000000,0.00008170000000000,0.00000895000000000,-0.00008540000000000,-0.00009670000000000,0.00025400000000000,-0.00108000000000000,-0.00003540000000000,-0.00003570000000000,0.02870000000000000,0.03310000000000000
36800.00000000000000000,-0.00003840000000000,-0.00003780000000000,-0.00004010000000000,-0.00000004970000000,0.00000018300000000,0.00004740000000000,0.00008210000000000,0.00000810000000000,-0.00008660000000000,-0.00009270000000000,0.00026300000000000,-0.00112000000000000,-0.00003030000000000,0.00011100000000000,0.02880000000000000,0.03330000000000000
36900.00000000000000000,-0.00003950000000000,-0.00003890000000000,-0.00004120000000000,-0.00000004060000000,0.00000045200000000,0.00004760000000000,0.00008250000000000,0.00000727000000000,-0.00008790000000000,-0.00008800000000000,0.00027200000000000,-0.00116000000000000,-0.00002470000000000,0.00027500000000000,0.02890000000000000,0.03340000000000000
37000.00000000000000000,-0.00004050000000000,-0.00003990000000000,-0.00004240000000000,-0.00000003080000000,0.00000073000000000,0.00004780000000000,0.00008290000000000,0.00000638000000000,-0.00008930000000000,-0.00008330000000000,0.00028200000000000,-0.00120000000000000,-0.00001870000000000,0.00044400000000000,0.02910000000000000,0.03360000000000000
37100.00000000000000000,-0.00004160000000000,-0.00004100000000000,-0.00004350000000000,-0.00000002120000000,0.00000099600000000,0.00004800000000000,0.00008320000000000,0.00000550000000000,-0.00009060000000000,-0.00007890000000000,0.00029200000000000,-0.00124000000000000,-0.00001290000000000,0.00060500000000000,0.02920000000000000,0.03380000000000000
37200.00000000000000000,-0.00004260000000000,-0.00004200000000000,-0.00004460000000000,-0.00000001220000000,0.00000125000000000,0.00004820000000000,0.00008360000000000,0.00000467000000000,-0.00009180000000000,-0.00007470000000000,0.00030100000000000,-0.00128000000000000,-0.00000744000000000,0.00075900000000000,0.02930000000000000,0.03390000000000000
37300.00000000000000000,-0.00004350000000000,-0.00004290000000000,-0.00004550000000000,-0.00000000397000000,0.00000148000000000,0.00004850000000000,0.00008400000000000,0.00000397000000000,-0.00009300000000000,-0.00007070000000000,0.00031000000000000,-0.00132000000000000,-0.00000242000000000,0.00090000000000000,0.02950000000000000,0.03410000000000000
37400.00000000000000000,-0.00004420000000000,-0.00004360000000000,-0.00004630000000000,0.00000000332000000,0.00000167000000000,0.00004870000000000,0.00008440000000000,0.00000346000000000,-0.00009400000000000,-0.00006730000000000,0.00031700000000000,-0.00134000000000000,0.00000202000000000,0.00102000000000000,0.02960000000000000,0.03420000000000000
37500.00000000000000000,-0.00004480000000000,-0.00004420000000000,-0.00004700000000000,0.00000000908000000,0.00000182000000000,0.00004900000000000,0.00008490000000000,0.00000310000000000,-0.00009490000000000,-0.00006450000000000,0.00032300000000000,-0.00137000000000000,0.00000552000000000,0.00111000000000000,0.02980000000000000,0.03440000000000000
37600.00000000000000000,-0.00004520000000000,-0.00004460000000000,-0.00004740000000000,0.00000001290000000,0.00000192000000000,0.00004920000000000,0.00008530000000000,0.00000293000000000,-0.00009560000000000,-0.00006250000000000,0.00032700000000000,-0.00138000000000000,0.00000783000000000,0.00117000000000000,0.02990000000000000,0.03460000000000000
37700.00000000000000000,-0.00004550000000000,-0.00004480000000000,-0.00004760000000000,0.00000001460000000,0.00000197000000000,0.00004940000000000,0.00008580000000000,0.00000295000000000,-0.00009600000000000,-0.00006110000000000,0.00032900000000000,-0.00139000000000000,0.00000885000000000,0.00120000000000000,0.03010000000000000,0.03480000000000000
37800.00000000000000000,-0.00004550000000000,-0.00004490000000000,-0.00004770000000000,0.00000001430000000,0.00000196000000000,0.00004970000000000,0.00008620000000000,0.00000319000000000,-0.00009640000000000,-0.00006010000000000,0.00032900000000000,-0.00140000000000000,0.00000873000000000,0.00119000000000000,0.03020000000000000,0.03500000000000000
37900.00000000000000000,-0.00004530000000000,-0.00004470000000000,-0.00004750000000000,0.00000001210000000,0.00000190000000000,0.00005000000000000,0.00008670000000000,0.00000365000000000,-0.00009650000000000,-0.00006020000000000,0.00032700000000000,-0.00139000000000000,0.00000736000000000,0.00115000000000000,0.03040000000000000,0.03520000000000000
38000.00000000000000000,-0.00004490000000000,-0.00004430000000000,-0.00004710000000000,0.00000000796000000,0.00000179000000000,0.00005030000000000,0.00008720000000000,0.00000433000000000,-0.00009630000000000,-0.00006110000000000,0.00032300000000000,-0.00137000000000000,0.00000484000000000,0.00109000000000000,0.03060000000000000,0.03540000000000000
38100.00000000000000000,-0.00004440000000000,-0.00004370000000000,-0.00004650000000000,0.00000000177000000,0.00000163000000000,0.00005060000000000,0.00008770000000000,0.00000519000000000,-0.00009600000000000,-0.00006260000000000,0.00031700000000000,-0.00135000000000000,0.00000108000000000,0.00099200000000000,0.03080000000000000,0.03560000000000000
38200.00000000000000000,-0.00004370000000000,-0.00004300000000000,-0.00004570000000000,-0.00000000612000000,0.00000142000000000,0.00005090000000000,0.00008820000000000,0.00000622000000000,-0.00009560000000000,-0.00006490000000000,0.00031000000000000,-0.00133000000000000,-0.00000372000000000,0.00086700000000000,0.03090000000000000,0.03580000000000000
38300.00000000000000000,-0.00004280000000000,-0.00004220000000000,-0.00004480000000000,-0.00000001530000000,0.00000119000000000,0.00005120000000000,0.00008870000000000,0.00000739000000000,-0.00009500000000000,-0.00006780000000000,0.00030200000000000,-0.00129000000000000,-0.00000929000000000,0.00072600000000000,0.03110000000000000,0.03600000000000000
38400.00000000000000000,-0.00004190000000000,-0.00004130000000000,-0.00004380000000000,-0.00000002520000000,0.00000094600000000,0.00005150000000000,0.00008920000000000,0.00000866000000000,-0.00009440000000000,-0.00007070000000000,0.00029300000000000,-0.00126000000000000,-0.00001530000000000,0.00057500000000000,0.03130000000000000,0.03620000000000000
38500.00000000000000000,-0.00004100000000000,-0.00004040000000000,-0.00004280000000000,-0.00000003590000000,0.00000068200000000,0.00005180000000000,0.00008980000000000,0.00000994000000000,-0.00009370000000000,-0.00007350000000000,0.00028500000000000,-0.00122000000000000,-0.00002180000000000,0.00041500000000000,0.03150000000000000,0.03640000000000000
38600.00000000000000000,-0.00004000000000000,-0.00003940000000000,-0.00004190000000000,-0.00000004660000000,0.00000042200000000,0.00005210000000000,0.00009030000000000,0.00001120000000000,-0.00009310000000000,-0.00007600000000000,0.00027600000000000,-0.00119000000000000,-0.00002830000000000,0.00025700000000000,0.03170000000000000,0.03660000000000000
38700.00000000000000000,-0.00003920000000000,-0.00003860000000000,-0.00004090000000000,-0.00000005650000000,0.00000018300000000,0.00005220000000000,0.00009050000000000,0.00001220000000000,-0.00009230000000000,-0.00007860000000000,0.00026800000000000,-0.00116000000000000,-0.00003450000000000,0.00011100000000000,0.03190000000000000,0.03680000000000000
38800.00000000000000000,-0.00003840000000000,-0.00003780000000000,-0.00004010000000000,-0.00000006560000000,-0.00000004200000000,0.00005230000000000,0.00009050000000000,0.00001300000000000,-0.00009150000000000,-0.00008060000000000,0.00026100000000000,-0.00113000000000000,-0.00004030000000000,-0.00002610000000000,0.03210000000000000,0.03710000000000000
38900.00000000000000000,-0.00003770000000000,-0.00003710000000000,-0.00003930000000000,-0.00000007330000000,-0.00000023300000000,0.00005230000000000,0.00009060000000000,0.00001380000000000,-0.00009080000000000,-0.00008180000000000,0.00025500000000000,-0.00111000000000000,-0.00004530000000000,-0.00014200000000000,0.03240000000000000,0.03740000000000000
39000.00000000000000000,-0.00003720000000000,-0.00003660000000000,-0.00003880000000000,-0.00000007930000000,-0.00000037200000000,0.00005240000000000,0.00009070000000000,0.00001440000000000,-0.00009030000000000,-0.00008230000000000,0.00025000000000000,-0.00109000000000000,-0.00004940000000000,-0.00022700000000000,0.03260000000000000,0.03760000000000000
39100.00000000000000000,-0.00003690000000000,-0.00003640000000000,-0.00003850000000000,-0.00000008300000000,-0.00000046600000000,0.00005240000000000,0.00009070000000000,0.00001470000000000,-0.00009010000000000,-0.00008230000000000,0.00024800000000000,-0.00108000000000000,-0.00005210000000000,-0.00028400000000000,0.03280000000000000,0.03780000000000000
39200.00000000000000000,-0.00003680000000000,-0.00003630000000000,-0.00003840000000000,-0.00000008440000000,-0.00000050500000000,0.00005240000000000,0.00009070000000000,0.00001480000000000,-0.00009000000000000,-0.00008130000000000,0.00024700000000000,-0.00108000000000000,-0.00005340000000000,-0.00030800000000000,0.03300000000000000,0.03810000000000000
39300.00000000000000000,-0.00003690000000000,-0.00003640000000000,-0.00003850000000000,-0.00000008380000000,-0.00000048900000000,0.00005240000000000,0.00009080000000000,0.00001470000000000,-0.00009010000000000,-0.00007930000000000,0.00024800000000000,-0.00108000000000000,-0.00005330000000000,-0.00029800000000000,0.03320000000000000,0.03830000000000000
39400.00000000000000000,-0.00003720000000000,-0.00003670000000000,-0.00003880000000000,-0.00000008110000000,-0.00000042300000000,0.00005240000000000,0.00009080000000000,0.00001440000000000,-0.00009040000000000,-0.00007660000000000,0.00025000000000000,-0.00109000000000000,-0.00005190000000000,-0.00025700000000000,0.03340000000000000,0.03850000000000000
39500.00000000000000000,-0.00003770000000000,-0.00003720000000000,-0.00003930000000000,-0.00000007620000000,-0.00000030500000000,0.00005240000000000,0.00009080000000000,0.00001390000000000,-0.00009090000000000,-0.00007330000000000,0.00025500000000000,-0.00111000000000000,-0.00004900000000000,-0.00018500000000000,0.03350000000000000,0.03870000000000000
39600.00000000000000000,-0.00003840000000000,-0.00003790000000000,-0.00004000000000000,-0.00000006940000000,-0.00000013600000000,0.00005240000000000,0.00009080000000000,0.00001320000000000,-0.00009160000000000,-0.00006950000000000,0.00026000000000000,-0.00114000000000000,-0.00004480000000000,-0.00008240000000000,0.03370000000000000,0.03890000000000000
39700.00000000000000000,-0.00003920000000000,-0.00003870000000000,-0.00004090000000000,-0.00000006100000000,0.00000007200000000,0.00005240000000000,0.00009080000000000,0.00001230000000000,-0.00009250000000000,-0.00006520000000000,0.00026800000000000,-0.00117000000000000,-0.00003940000000000,0.00004410000000000,0.03390000000000000,0.03910000000000000
39800.00000000000000000,-0.00004020000000000,-0.00003960000000000,-0.00004190000000000,-0.00000005150000000,0.00000031300000000,0.00005240000000000,0.00009080000000000,0.00001140000000000,-0.00009350000000000,-0.00006040000000000,0.00027600000000000,-0.00121000000000000,-0.00003320000000000,0.00019100000000000,0.03400000000000000,0.03930000000000000
39900.00000000000000000,-0.00004120000000000,-0.00004070000000000,-0.00004300000000000,-0.00000004140000000,0.00000057000000000,0.00005240000000000,0.00009080000000000,0.00001030000000000,-0.00009460000000000,-0.00005470000000000,0.00028500000000000,-0.00125000000000000,-0.00002640000000000,0.00034600000000000,0.03420000000000000,0.03950000000000000
40000.00000000000000000,-0.00004220000000000,-0.00004170000000000,-0.00004410000000000,-0.00000003080000000,0.00000083200000000,0.00005240000000000,0.00009080000000000,0.00000924000000000,-0.00009560000000000,-0.00004900000000000,0.00029500000000000,-0.00129000000000000,-0.00001930000000000,0.00050600000000000,0.03440000000000000,0.03970000000000000
40100.00000000000000000,-0.00004330000000000,-0.00004270000000000,-0.00004520000000000,-0.00000002040000000,0.00000110000000000,0.00005240000000000,0.00009070000000000,0.00000812000000000,-0.00009660000000000,-0.00004360000000000,0.00030400000000000,-0.00133000000000000,-0.00001220000000000,0.00066600000000000,0.03450000000000000,0.03990000000000000
40200.00000000000000000,-0.00004430000000000,-0.00004370000000000,-0.00004630000000000,-0.00000001090000000,0.00000134000000000,0.00005230000000000,0.00009060000000000,0.00000706000000000,-0.00009760000000000,-0.00003840000000000,0.00031300000000000,-0.00137000000000000,-0.00000556000000000,0.00081500000000000,0.03470000000000000,0.04010000000000000
40300.00000000000000000,-0.00004510000000000,-0.00004460000000000,-0.00004720000000000,-0.00000000227000000,0.00000156000000000,0.00005230000000000,0.00009060000000000,0.00000611000000000,-0.00009850000000000,-0.00003340000000000,0.00032200000000000,-0.00141000000000000,0.00000054900000000,0.00094700000000000,0.03480000000000000,0.04030000000000000
40400.00000000000000000,-0.00004580000000000,-0.00004530000000000,-0.00004790000000000,0.00000000500000000,0.00000174000000000,0.00005220000000000,0.00009060000000000,0.00000539000000000,-0.00009920000000000,-0.00002900000000000,0.00032800000000000,-0.00143000000000000,0.00000581000000000,0.00106000000000000,0.03500000000000000,0.04050000000000000
40500.00000000000000000,-0.00004640000000000,-0.00004580000000000,-0.00004850000000000,0.00000001050000000,0.00000188000000000,0.00005220000000000,0.00009050000000000,0.00000481000000000,-0.00009970000000000,-0.00002500000000000,0.00033400000000000,-0.00146000000000000,0.00000991000000000,0.00115000000000000,0.03520000000000000,0.04070000000000000
40600.00000000000000000,-0.00004680000000000,-0.00004620000000000,-0.00004890000000000,0.00000001380000000,0.00000196000000000,0.00005220000000000,0.00009050000000000,0.00000442000000000,-0.00010000000000000,-0.00002130000000000,0.00033700000000000,-0.00147000000000000,0.00001250000000000,0.00120000000000000,0.03540000000000000,0.04090000000000000
40700.00000000000000000,-0.00004690000000000,-0.00004640000000000,-0.00004910000000000,0.00000001500000000,0.00000200000000000,0.00005220000000000,0.00009050000000000,0.00000423000000000,-0.00010000000000000,-0.00001780000000000,0.00033900000000000,-0.00148000000000000,0.00001360000000000,0.00122000000000000,0.03570000000000000,0.04120000000000000
40800.00000000000000000,-0.00004690000000000,-0.00004640000000000,-0.00004910000000000,0.00000001400000000,0.00000198000000000,0.00005220000000000,0.00009050000000000,0.00000426000000000,-0.00010000000000000,-0.00001480000000000,0.00033900000000000,-0.00149000000000000,0.00001310000000000,0.00120000000000000,0.03590000000000000,0.04150000000000000
40900.00000000000000000,-0.00004670000000000,-0.00004620000000000,-0.00004880000000000,0.00000001090000000,0.00000190000000000,0.00005220000000000,0.00009060000000000,0.00000451000000000,-0.00010000000000000,-0.00001270000000000,0.00033600000000000,-0.00148000000000000,0.00001110000000000,0.00116000000000000,0.03610000000000000,0.04180000000000000
41000.00000000000000000,-0.00004630000000000,-0.00004580000000000,-0.00004840000000000,0.00000000590000000,0.00000178000000000,0.00005230000000000,0.00009060000000000,0.00000495000000000,-0.00009960000000000,-0.00001150000000000,0.00033200000000000,-0.00147000000000000,0.00000760000000000,0.00108000000000000,0.03640000000000000,0.04200000000000000
41100.00000000000000000,-0.00004570000000000,-0.00004520000000000,-0.00004770000000000,-0.00000000091700000,0.00000160000000000,0.00005230000000000,0.00009060000000000,0.00000560000000000,-0.00009900000000000,-0.00001080000000000,0.00032600000000000,-0.00145000000000000,0.00000264000000000,0.00098000000000000,0.03660000000000000,0.04230000000000000
41200.00000000000000000,-0.00004500000000000,-0.00004450000000000,-0.00004700000000000,-0.00000000923000000,0.00000139000000000,0.00005230000000000,0.00009070000000000,0.00000639000000000,-0.00009830000000000,-0.00001090000000000,0.00031900000000000,-0.00142000000000000,-0.00000356000000000,0.00085200000000000,0.03690000000000000,0.04260000000000000
41300.00000000000000000,-0.00004410000000000,-0.00004360000000000,-0.00004600000000000,-0.00000001840000000,0.00000116000000000,0.00005240000000000,0.00009070000000000,0.00000731000000000,-0.00009740000000000,-0.00001130000000000,0.00031000000000000,-0.00139000000000000,-0.00001060000000000,0.00071000000000000,0.03710000000000000,0.04290000000000000
41400.00000000000000000,-0.00004320000000000,-0.00004280000000000,-0.00004510000000000,-0.00000002810000000,0.00000090600000000,0.00005240000000000,0.00009080000000000,0.00000826000000000,-0.00009660000000000,-0.00001130000000000,0.00030200000000000,-0.00136000000000000,-0.00001810000000000,0.00055900000000000,0.03740000000000000,0.04320000000000000
41500.00000000000000000,-0.00004230000000000,-0.00004190000000000,-0.00004410000000000,-0.00000003800000000,0.00000065600000000,0.00005250000000000,0.00009090000000000,0.00000923000000000,-0.00009570000000000,-0.00001120000000000,0.00029400000000000,-0.00133000000000000,-0.00002590000000000,0.00040800000000000,0.03760000000000000,0.04350000000000000
41600.00000000000000000,-0.00004150000000000,-0.00004110000000000,-0.00004320000000000,-0.00000004760000000,0.00000041300000000,0.00005250000000000,0.00009100000000000,0.00001010000000000,-0.00009490000000000,-0.00001060000000000,0.00028600000000000,-0.00130000000000000,-0.00003360000000000,0.00026100000000000,0.03790000000000000,0.04380000000000000
41700.00000000000000000,-0.00004070000000000,-0.00004030000000000,-0.00004240000000000,-0.00000005620000000,0.00000018300000000,0.00005250000000000,0.00009100000000000,0.00001100000000000,-0.00009410000000000,-0.00000942000000000,0.00027900000000000,-0.00128000000000000,-0.00004080000000000,0.00012300000000000,0.03820000000000000,0.04410000000000000
41800.00000000000000000,-0.00004000000000000,-0.00003960000000000,-0.00004160000000000,-0.00000006360000000,-0.00000000880000000,0.00005260000000000,0.00009110000000000,0.00001180000000000,-0.00009340000000000,-0.00000741000000000,0.00027200000000000,-0.00125000000000000,-0.00004710000000000,0.00000777000000000,0.03850000000000000,0.04450000000000000
41900.00000000000000000,-0.00003950000000000,-0.00003910000000000,-0.00004100000000000,-0.00000006940000000,-0.00000016200000000,0.00005260000000000,0.00009120000000000,0.00001240000000000,-0.00009290000000000,-0.00000449000000000,0.00026800000000000,-0.00124000000000000,-0.00005230000000000,-0.00008380000000000,0.03880000000000000,0.04480000000000000
42000.00000000000000000,-0.00003910000000000,-0.00003880000000000,-0.00004070000000000,-0.00000007340000000,-0.00000027100000000,0.00005270000000000,0.00009120000000000,0.00001280000000000,-0.00009260000000000,-0.00000111000000000,0.00026500000000000,-0.00123000000000000,-0.00005600000000000,-0.00014800000000000,0.03910000000000000,0.04520000000000000
42100.00000000000000000,-0.00003900000000000,-0.00003860000000000,-0.00004050000000000,-0.00000007500000000,-0.00000032000000000,0.00005270000000000,0.00009130000000000,0.00001290000000000,-0.00009240000000000,0.00000277000000000,0.00026400000000000,-0.00123000000000000,-0.00005790000000000,-0.00017700000000000,0.03940000000000000,0.04550000000000000
42200.00000000000000000,-0.00003910000000000,-0.00003870000000000,-0.00004060000000000,-0.00000007470000000,-0.00000031400000000,0.00005270000000000,0.00009130000000000,0.00001290000000000,-0.00009250000000000,0.00000799000000000,0.00026400000000000,-0.00124000000000000,-0.00005810000000000,-0.00017200000000000,0.03960000000000000,0.04580000000000000
42300.00000000000000000,-0.00003940000000000,-0.00003900000000000,-0.00004090000000000,-0.00000007220000000,-0.00000026500000000,0.00005270000000000,0.00009130000000000,0.00001260000000000,-0.00009280000000000,0.00001390000000000,0.00026600000000000,-0.00125000000000000,-0.00005650000000000,-0.00014000000000000,0.03990000000000000,0.04610000000000000
42400.00000000000000000,-0.00003980000000000,-0.00003940000000000,-0.00004130000000000,-0.00000006780000000,-0.00000015800000000,0.00005270000000000,0.00009130000000000,0.00001220000000000,-0.00009330000000000,0.00002080000000000,0.00027000000000000,-0.00128000000000000,-0.00005320000000000,-0.00007380000000000,0.04020000000000000,0.04640000000000000
42500.00000000000000000,-0.00004040000000000,-0.00004010000000000,-0.00004200000000000,-0.00000006130000000,0.00000000048500000,0.00005270000000000,0.00009130000000000,0.00001150000000000,-0.00009390000000000,0.00002860000000000,0.00027600000000000,-0.00130000000000000,-0.00004800000000000,0.00002430000000000,0.04050000000000000,0.04670000000000000
42600.00000000000000000,-0.00004120000000000,-0.00004090000000000,-0.00004280000000000,-0.00000005330000000,0.00000019100000000,0.00005270000000000,0.00009140000000000,0.00001070000000000,-0.00009480000000000,0.00003760000000000,0.00028300000000000,-0.00134000000000000,-0.00004150000000000,0.00014200000000000,0.04080000000000000,0.04710000000000000
42700.00000000000000000,-0.00004210000000000,-0.00004180000000000,-0.00004380000000000,-0.00000004430000000,0.00000041600000000,0.00005270000000000,0.00009140000000000,0.00000979000000000,-0.00009570000000000,0.00004720000000000,0.00029100000000000,-0.00138000000000000,-0.00003390000000000,0.00028000000000000,0.04110000000000000,0.04740000000000000
42800.00000000000000000,-0.00004310000000000,-0.00004270000000000,-0.00004480000000000,-0.00000003460000000,0.00000066000000000,0.00005280000000000,0.00009140000000000,0.00000880000000000,-0.00009670000000000,0.00005790000000000,0.00030000000000000,-0.00142000000000000,-0.00002550000000000,0.00043000000000000,0.04140000000000000,0.04780000000000000
42900.00000000000000000,-0.00004410000000000,-0.00004370000000000,-0.00004590000000000,-0.00000002470000000,0.00000090100000000,0.00005280000000000,0.00009140000000000,0.00000781000000000,-0.00009780000000000,0.00006880000000000,0.00030900000000000,-0.00147000000000000,-0.00001670000000000,0.00057800000000000,0.04170000000000000,0.04810000000000000
43000.00000000000000000,-0.00004500000000000,-0.00004470000000000,-0.00004690000000000,-0.00000001510000000,0.00000114000000000,0.00005280000000000,0.00009150000000000,0.00000684000000000,-0.00009880000000000,0.00007940000000000,0.00031800000000000,-0.00151000000000000,-0.00000810000000000,0.00072300000000000,0.04200000000000000,0.04850000000000000
43100.00000000000000000,-0.00004590000000000,-0.00004550000000000,-0.00004780000000000,-0.00000000641000000,0.00000136000000000,0.00005280000000000,0.00009140000000000,0.00000592000000000,-0.00009960000000000,0.00008990000000000,0.00032600000000000,-0.00155000000000000,0.00000004040000000,0.00086200000000000,0.04230000000000000,0.04880000000000000
43200.00000000000000000,-0.00004670000000000,-0.00004630000000000,-0.00004860000000000,0.00000000138000000,0.00000155000000000,0.00005270000000000,0.00009140000000000,0.00000509000000000,-0.00010000000000000,0.00010100000000000,0.00033300000000000,-0.00159000000000000,0.00000740000000000,0.00098000000000000,0.04260000000000000,0.04920000000000000
43300.00000000000000000,-0.00004730000000000,-0.00004690000000000,-0.00004930000000000,0.00000000759000000,0.00000170000000000,0.00005270000000000,0.00009140000000000,0.00000447000000000,-0.00010100000000000,0.00011100000000000,0.00033900000000000,-0.00162000000000000,0.00001340000000000,0.00107000000000000,0.04290000000000000,0.04960000000000000
43400.00000000000000000,-0.00004770000000000,-0.00004740000000000,-0.00004970000000000,0.00000001190000000,0.00000181000000000,0.00005270000000000,0.00009130000000000,0.00000400000000000,-0.00010100000000000,0.00012100000000000,0.00034300000000000,-0.00165000000000000,0.00001780000000000,0.00114000000000000,0.04330000000000000,0.05000000000000000
43500.00000000000000000,-0.00004800000000000,-0.00004760000000000,-0.00005000000000000,0.00000001420000000,0.00000186000000000,0.00005270000000000,0.00009130000000000,0.00000373000000000,-0.00010200000000000,0.00013000000000000,0.00034600000000000,-0.00166000000000000,0.00002030000000000,0.00118000000000000,0.04360000000000000,0.05040000000000000
43600.00000000000000000,-0.00004810000000000,-0.00004770000000000,-0.00005010000000000,0.00000001450000000,0.00000186000000000,0.00005270000000000,0.00009130000000000,0.00000365000000000,-0.00010200000000000,0.00013900000000000,0.00034700000000000,-0.00168000000000000,0.00002090000000000,0.00118000000000000,0.04390000000000000,0.05080000000000000
43700.00000000000000000,-0.00004800000000000,-0.00004760000000000,-0.00004990000000000,0.00000001280000000,0.00000181000000000,0.00005270000000000,0.00009130000000000,0.00000379000000000,-0.00010200000000000,0.00014700000000000,0.00034500000000000,-0.00168000000000000,0.00001950000000000,0.00115000000000000,0.04430000000000000,0.05120000000000000
43800.00000000000000000,-0.00004760000000000,-0.00004730000000000,-0.00004960000000000,0.00000000908000000,0.00000171000000000,0.00005270000000000,0.00009140000000000,0.00000416000000000,-0.00010100000000000,0.00015500000000000,0.00034200000000000,-0.00168000000000000,0.00001610000000000,0.00109000000000000,0.04470000000000000,0.05160000000000000
43900.00000000000000000,-0.00004710000000000,-0.00004680000000000,-0.00004900000000000,0.00000000344000000,0.00000156000000000,0.00005270000000000,0.00009140000000000,0.00000470000000000,-0.00010100000000000,0.00016200000000000,0.00033700000000000,-0.00167000000000000,0.00001070000000000,0.00100000000000000,0.04500000000000000,0.05200000000000000
44000.00000000000000000,-0.00004650000000000,-0.00004620000000000,-0.00004830000000000,-0.00000000355000000,0.00000137000000000,0.00005280000000000,0.00009150000000000,0.00000540000000000,-0.00010000000000000,0.00016900000000000,0.00033000000000000,-0.00165000000000000,0.00000366000000000,0.00088700000000000,0.04540000000000000,0.05240000000000000
44100.00000000000000000,-0.00004570000000000,-0.00004540000000000,-0.00004750000000000,-0.00000001150000000,0.00000115000000000,0.00005280000000000,0.00009150000000000,0.00000621000000000,-0.00009940000000000,0.00017500000000000,0.00032300000000000,-0.00163000000000000,-0.00000455000000000,0.00075800000000000,0.04570000000000000,0.05280000000000000
44200.00000000000000000,-0.00004490000000000,-0.00004460000000000,-0.00004660000000000,-0.00000002010000000,0.00000092100000000,0.00005280000000000,0.00009160000000000,0.00000710000000000,-0.00009860000000000,0.00018100000000000,0.00031500000000000,-0.00161000000000000,-0.00001360000000000,0.00062000000000000,0.04610000000000000,0.05320000000000000
44300.00000000000000000,-0.00004410000000000,-0.00004380000000000,-0.00004570000000000,-0.00000002900000000,0.00000067900000000,0.00005290000000000,0.00009160000000000,0.00000801000000000,-0.00009780000000000,0.00018800000000000,0.00030700000000000,-0.00159000000000000,-0.00002320000000000,0.00047600000000000,0.04650000000000000,0.05370000000000000
44400.00000000000000000,-0.00004330000000000,-0.00004300000000000,-0.00004480000000000,-0.00000003770000000,0.00000044500000000,0.00005290000000000,0.00009170000000000,0.00000888000000000,-0.00009700000000000,0.00019500000000000,0.00030000000000000,-0.00157000000000000,-0.00003260000000000,0.00033700000000000,0.04680000000000000,0.05410000000000000
44500.00000000000000000,-0.00004250000000000,-0.00004230000000000,-0.00004400000000000,-0.00000004550000000,0.00000022900000000,0.00005300000000000,0.00009180000000000,0.00000969000000000,-0.00009630000000000,0.00020200000000000,0.00029300000000000,-0.00155000000000000,-0.00004140000000000,0.00020800000000000,0.04720000000000000,0.05450000000000000
44600.00000000000000000,-0.00004180000000000,-0.00004160000000000,-0.00004330000000000,-0.00000005220000000,0.00000003890000000,0.00005300000000000,0.00009180000000000,0.00001050000000000,-0.00009560000000000,0.00021000000000000,0.00028700000000000,-0.00153000000000000,-0.00004920000000000,0.00009540000000000,0.04760000000000000,0.05490000000000000
44700.00000000000000000,-0.00004130000000000,-0.00004110000000000,-0.00004270000000000,-0.00000005770000000,-0.00000011200000000,0.00005310000000000,0.00009190000000000,0.00001100000000000,-0.00009510000000000,0.00021900000000000,0.00028200000000000,-0.00152000000000000,-0.00005570000000000,0.00000655000000000,0.04790000000000000,0.05540000000000000
44800.00000000000000000,-0.00004100000000000,-0.00004080000000000,-0.00004240000000000,-0.00000006130000000,-0.00000021600000000,0.00005310000000000,0.00009200000000000,0.00001140000000000,-0.00009480000000000,0.00022800000000000,0.00027900000000000,-0.00152000000000000,-0.00006030000000000,-0.00005410000000000,0.04830000000000000,0.05580000000000000
44900.00000000000000000,-0.00004090000000000,-0.00004060000000000,-0.00004220000000000,-0.00000006280000000,-0.00000027000000000,0.00005310000000000,0.00009200000000000,0.00001160000000000,-0.00009460000000000,0.00023800000000000,0.00027800000000000,-0.00153000000000000,-0.00006270000000000,-0.00008400000000000,0.04860000000000000,0.05620000000000000
45000.00000000000000000,-0.00004090000000000,-0.00004070000000000,-0.00004220000000000,-0.00000006250000000,-0.00000027200000000,0.00005310000000000,0.00009200000000000,0.00001150000000000,-0.00009470000000000,0.00024800000000000,0.00027800000000000,-0.00154000000000000,-0.00006300000000000,-0.00008290000000000,0.04900000000000000,0.05660000000000000
45100.00000000000000000,-0.00004120000000000,-0.00004090000000000,-0.00004250000000000,-0.00000006040000000,-0.00000022700000000,0.00005310000000000,0.00009200000000000,0.00001130000000000,-0.00009500000000000,0.00026000000000000,0.00028100000000000,-0.00156000000000000,-0.00006110000000000,-0.00005300000000000,0.04930000000000000,0.05700000000000000
45200.00000000000000000,-0.00004160000000000,-0.00004140000000000,-0.00004290000000000,-0.00000005630000000,-0.00000012900000000,0.00005320000000000,0.00009210000000000,0.00001090000000000,-0.00009540000000000,0.00027200000000000,0.00028400000000000,-0.00158000000000000,-0.00005700000000000,0.00000854000000000,0.04970000000000000,0.05730000000000000
45300.00000000000000000,-0.00004220000000000,-0.00004190000000000,-0.00004360000000000,-0.00000005040000000,0.00000001570000000,0.00005320000000000,0.00009210000000000,0.00001030000000000,-0.00009600000000000,0.00028500000000000,0.00028900000000000,-0.00162000000000000,-0.00005060000000000,0.00009890000000000,0.05000000000000000,0.05770000000000000
45400.00000000000000000,-0.00004290000000000,-0.00004270000000000,-0.00004430000000000,-0.00000004320000000,0.00000019400000000,0.00005320000000000,0.00009210000000000,0.00000956000000000,-0.00009680000000000,0.00029700000000000,0.00029600000000000,-0.00165000000000000,-0.00004270000000000,0.00020900000000000,0.05030000000000000,0.05810000000000000
45500.00000000000000000,-0.00004370000000000,-0.00004350000000000,-0.00004520000000000,-0.00000003520000000,0.00000040000000000,0.00005320000000000,0.00009210000000000,0.00000871000000000,-0.00009770000000000,0.00031000000000000,0.00030300000000000,-0.00169000000000000,-0.00003340000000000,0.00033600000000000,0.05060000000000000,0.05840000000000000
45600.00000000000000000,-0.00004460000000000,-0.00004440000000000,-0.00004620000000000,-0.00000002670000000,0.00000062300000000,0.00005320000000000,0.00009220000000000,0.00000781000000000,-0.00009860000000000,0.00032400000000000,0.00031200000000000,-0.00174000000000000,-0.00002340000000000,0.00047300000000000,0.05090000000000000,0.05880000000000000
45700.00000000000000000,-0.00004550000000000,-0.00004530000000000,-0.00004710000000000,-0.00000001790000000,0.00000084500000000,0.00005320000000000,0.00009220000000000,0.00000689000000000,-0.00009960000000000,0.00033800000000000,0.00032000000000000,-0.00178000000000000,-0.00001300000000000,0.00060900000000000,0.05120000000000000,0.05910000000000000
45800.00000000000000000,-0.00004640000000000,-0.00004620000000000,-0.00004810000000000,-0.00000000959000000,0.00000106000000000,0.00005320000000000,0.00009220000000000,0.00000600000000000,-0.00010000000000000,0.00035200000000000,0.00032800000000000,-0.00183000000000000,-0.00000287000000000,0.00074100000000000,0.05150000000000000,0.05950000000000000
45900.00000000000000000,-0.00004720000000000,-0.00004700000000000,-0.00004890000000000,-0.00000000198000000,0.00000126000000000,0.00005320000000000,0.00009220000000000,0.00000518000000000,-0.00010100000000000,0.00036600000000000,0.00033600000000000,-0.00187000000000000,0.00000664000000000,0.00086600000000000,0.05180000000000000,0.05980000000000000
46000.00000000000000000,-0.00004790000000000,-0.00004770000000000,-0.00004960000000000,0.00000000454000000,0.00000143000000000,0.00005320000000000,0.00009220000000000,0.00000445000000000,-0.00010200000000000,0.00038000000000000,0.00034200000000000,-0.00191000000000000,0.00001490000000000,0.00096800000000000,0.05210000000000000,0.06020000000000000
46100.00000000000000000,-0.00004840000000000,-0.00004820000000000,-0.00005020000000000,0.00000000983000000,0.00000156000000000,0.00005320000000000,0.00009220000000000,0.00000391000000000,-0.00010200000000000,0.00039400000000000,0.00034700000000000,-0.00194000000000000,0.00002150000000000,0.00105000000000000,0.05250000000000000,0.06060000000000000
46200.00000000000000000,-0.00004880000000000,-0.00004850000000000,-0.00005050000000000,0.00000001310000000,0.00000164000000000,0.00005320000000000,0.00009210000000000,0.00000354000000000,-0.00010300000000000,0.00040700000000000,0.00035000000000000,-0.00196000000000000,0.00002600000000000,0.00110000000000000,0.05280000000000000,0.06100000000000000
46300.00000000000000000,-0.00004900000000000,-0.00004870000000000,-0.00005070000000000,0.00000001440000000,0.00000168000000000,0.00005320000000000,0.00009210000000000,0.00000335000000000,-0.00010300000000000,0.00042000000000000,0.00035200000000000,-0.00198000000000000,0.00002800000000000,0.00112000000000000,0.05310000000000000,0.06140000000000000
46400.00000000000000000,-0.00004900000000000,-0.00004880000000000,-0.00005070000000000,0.00000001380000000,0.00000166000000000,0.00005320000000000,0.00009210000000000,0.00000333000000000,-0.00010300000000000,0.00043300000000000,0.00035200000000000,-0.00200000000000000,0.00002770000000000,0.00111000000000000,0.05350000000000000,0.06180000000000000
46500.00000000000000000,-0.00004880000000000,-0.00004860000000000,-0.00005050000000000,0.00000001180000000,0.00000160000000000,0.00005320000000000,0.00009220000000000,0.00000353000000000,-0.00010300000000000,0.00044500000000000,0.00035000000000000,-0.00200000000000000,0.00002520000000000,0.00108000000000000,0.05380000000000000,0.06220000000000000
46600.00000000000000000,-0.00004850000000000,-0.00004820000000000,-0.00005010000000000,0.00000000768000000,0.00000148000000000,0.00005320000000000,0.00009220000000000,0.00000392000000000,-0.00010300000000000,0.00045700000000000,0.00034700000000000,-0.00200000000000000,0.00002020000000000,0.00101000000000000,0.05420000000000000,0.06260000000000000
46700.00000000000000000,-0.00004790000000000,-0.00004770000000000,-0.00004960000000000,0.00000000205000000,0.00000133000000000,0.00005320000000000,0.00009220000000000,0.00000448000000000,-0.00010200000000000,0.00046800000000000,0.00034200000000000,-0.00200000000000000,0.00001290000000000,0.00092100000000000,0.05450000000000000,0.06300000000000000
46800.00000000000000000,-0.00004730000000000,-0.00004710000000000,-0.00004890000000000,-0.00000000465000000,0.00000114000000000,0.00005320000000000,0.00009220000000000,0.00000519000000000,-0.00010100000000000,0.00047800000000000,0.00033500000000000,-0.00198000000000000,0.00000407000000000,0.00081200000000000,0.05490000000000000,0.06340000000000000
46900.00000000000000000,-0.00004660000000000,-0.00004640000000000,-0.00004810000000000,-0.00000001200000000,0.00000093100000000,0.00005330000000000,0.00009230000000000,0.00000596000000000,-0.00010100000000000,0.00048900000000000,0.00032800000000000,-0.00197000000000000,-0.00000594000000000,0.00068800000000000,0.05530000000000000,0.06380000000000000
47000.00000000000000000,-0.00004580000000000,-0.00004560000000000,-0.00004730000000000,-0.00000001990000000,0.00000070900000000,0.00005330000000000,0.00009240000000000,0.00000678000000000,-0.00009990000000000,0.00050000000000000,0.00032100000000000,-0.00195000000000000,-0.00001680000000000,0.00055600000000000,0.05560000000000000,0.06420000000000000
47100.00000000000000000,-0.00004510000000000,-0.00004490000000000,-0.00004650000000000,-0.00000002780000000,0.00000049200000000,0.00005340000000000,0.00009240000000000,0.00000761000000000,-0.00009910000000000,0.00051100000000000,0.00031400000000000,-0.00194000000000000,-0.00002770000000000,0.00042800000000000,0.05600000000000000,0.06470000000000000
47200.00000000000000000,-0.00004440000000000,-0.00004420000000000,-0.00004570000000000,-0.00000003520000000,0.00000028400000000,0.00005340000000000,0.00009250000000000,0.00000837000000000,-0.00009840000000000,0.00052200000000000,0.00030700000000000,-0.00193000000000000,-0.00003830000000000,0.00030400000000000,0.05630000000000000,0.06510000000000000
47300.00000000000000000,-0.00004370000000000,-0.00004360000000000,-0.00004500000000000,-0.00000004180000000,0.00000009490000000,0.00005340000000000,0.00009260000000000,0.00000909000000000,-0.00009780000000000,0.00053400000000000,0.00030100000000000,-0.00192000000000000,-0.00004790000000000,0.00019300000000000,0.05670000000000000,0.06550000000000000
47400.00000000000000000,-0.00004320000000000,-0.00004300000000000,-0.00004440000000000,-0.00000004710000000,-0.00000005790000000,0.00005350000000000,0.00009260000000000,0.00000969000000000,-0.00009730000000000,0.00054700000000000,0.00029700000000000,-0.00191000000000000,-0.00005590000000000,0.00010300000000000,0.05710000000000000,0.06590000000000000
47500.00000000000000000,-0.00004280000000000,-0.00004270000000000,-0.00004400000000000,-0.00000005110000000,-0.00000017300000000,0.00005350000000000,0.00009270000000000,0.00001010000000000,-0.00009690000000000,0.00056000000000000,0.00029300000000000,-0.00191000000000000,-0.00006200000000000,0.00003560000000000,0.05750000000000000,0.06640000000000000
47600.00000000000000000,-0.00004260000000000,-0.00004250000000000,-0.00004380000000000,-0.00000005320000000,-0.00000024000000000,0.00005350000000000,0.00009270000000000,0.00001030000000000,-0.00009670000000000,0.00057300000000000,0.00029200000000000,-0.00192000000000000,-0.00006550000000000,-0.00000181000000000,0.05780000000000000,0.06670000000000000
47700.00000000000000000,-0.00004260000000000,-0.00004250000000000,-0.00004370000000000,-0.00000005350000000,-0.00000025400000000,0.00005350000000000,0.00009270000000000,0.00001040000000000,-0.00009670000000000,0.00058700000000000,0.00029100000000000,-0.00193000000000000,-0.00006650000000000,-0.00000785000000000,0.05810000000000000,0.06710000000000000
47800.00000000000000000,-0.00004280000000000,-0.00004270000000000,-0.00004390000000000,-0.00000005200000000,-0.00000022800000000,0.00005360000000000,0.00009280000000000,0.00001020000000000,-0.00009690000000000,0.00060300000000000,0.00029300000000000,-0.00195000000000000,-0.00006500000000000,0.00001040000000000,0.05850000000000000,0.06750000000000000
47900.00000000000000000,-0.00004310000000000,-0.00004300000000000,-0.00004430000000000,-0.00000004870000000,-0.00000015100000000,0.00005360000000000,0.00009280000000000,0.00000986000000000,-0.00009730000000000,0.00061900000000000,0.00029600000000000,-0.00198000000000000,-0.00006090000000000,0.00005930000000000,0.05880000000000000,0.06790000000000000
48000.00000000000000000,-0.00004370000000000,-0.00004350000000000,-0.00004490000000000,-0.00000004380000000,-0.00000002580000000,0.00005360000000000,0.00009280000000000,0.00000932000000000,-0.00009790000000000,0.00063500000000000,0.00030100000000000,-0.00201000000000000,-0.00005410000000000,0.00013700000000000,0.05910000000000000,0.06830000000000000
48100.00000000000000000,-0.00004430000000000,-0.00004420000000000,-0.00004550000000000,-0.00000003770000000,0.00000013200000000,0.00005360000000000,0.00009290000000000,0.00000868000000000,-0.00009850000000000,0.00065000000000000,0.00030600000000000,-0.00205000000000000,-0.00004540000000000,0.00023500000000000,0.05940000000000000,0.06870000000000000
48200.00000000000000000,-0.00004510000000000,-0.00004490000000000,-0.00004630000000000,-0.00000003070000000,0.00000031800000000,0.00005360000000000,0.00009290000000000,0.00000790000000000,-0.00009930000000000,0.00066600000000000,0.00031300000000000,-0.00209000000000000,-0.00003520000000000,0.00034900000000000,0.05970000000000000,0.06900000000000000
48300.00000000000000000,-0.00004590000000000,-0.00004570000000000,-0.00004720000000000,-0.00000002320000000,0.00000052400000000,0.00005360000000000,0.00009290000000000,0.00000708000000000,-0.00010000000000000,0.00068300000000000,0.00032000000000000,-0.00214000000000000,-0.00002390000000000,0.00047500000000000,0.06000000000000000,0.06940000000000000
48400.00000000000000000,-0.00004680000000000,-0.00004660000000000,-0.00004810000000000,-0.00000001540000000,0.00000072800000000,0.00005360000000000,0.00009290000000000,0.00000623000000000,-0.00010100000000000,0.00070100000000000,0.00032800000000000,-0.00218000000000000,-0.00001220000000000,0.00060000000000000,0.06040000000000000,0.06970000000000000
48500.00000000000000000,-0.00004760000000000,-0.00004740000000000,-0.00004900000000000,-0.00000000790000000,0.00000092800000000,0.00005370000000000,0.00009300000000000,0.00000540000000000,-0.00010200000000000,0.00071700000000000,0.00033600000000000,-0.00223000000000000,-0.00000078500000000,0.00072200000000000,0.06070000000000000,0.07010000000000000
48600.00000000000000000,-0.00004830000000000,-0.00004820000000000,-0.00004980000000000,-0.00000000108000000,0.00000112000000000,0.00005370000000000,0.00009300000000000,0.00000464000000000,-0.00010300000000000,0.00073500000000000,0.00034300000000000,-0.00227000000000000,0.00000998000000000,0.00083800000000000,0.06100000000000000,0.07040000000000000
48700.00000000000000000,-0.00004900000000000,-0.00004880000000000,-0.00005040000000000,0.00000000478000000,0.00000127000000000,0.00005360000000000,0.00009290000000000,0.00000396000000000,-0.00010300000000000,0.00075200000000000,0.00034900000000000,-0.00231000000000000,0.00001920000000000,0.00093400000000000,0.06130000000000000,0.07080000000000000
48800.00000000000000000,-0.00004950000000000,-0.00004930000000000,-0.00005090000000000,0.00000000948000000,0.00000139000000000,0.00005360000000000,0.00009290000000000,0.00000347000000000,-0.00010400000000000,0.00077000000000000,0.00035400000000000,-0.00235000000000000,0.00002660000000000,0.00101000000000000,0.06160000000000000,0.07120000000000000
48900.00000000000000000,-0.00004980000000000,-0.00004960000000000,-0.00005130000000000,0.00000001230000000,0.00000147000000000,0.00005360000000000,0.00009290000000000,0.00000313000000000,-0.00010400000000000,0.00078600000000000,0.00035700000000000,-0.00237000000000000,0.00003150000000000,0.00106000000000000,0.06200000000000000,0.07160000000000000
49000.00000000000000000,-0.00004990000000000,-0.00004980000000000,-0.00005140000000000,0.00000001340000000,0.00000150000000000,0.00005360000000000,0.00009290000000000,0.00000296000000000,-0.00010400000000000,0.00080300000000000,0.00035800000000000,-0.00240000000000000,0.00003360000000000,0.00108000000000000,0.06230000000000000,0.07200000000000000
49100.00000000000000000,-0.00005000000000000,-0.00004980000000000,-0.00005140000000000,0.00000001280000000,0.00000148000000000,0.00005360000000000,0.00009290000000000,0.00000295000000000,-0.00010400000000000,0.00082000000000000,0.00035800000000000,-0.00241000000000000,0.00003310000000000,0.00107000000000000,0.06260000000000000,0.07240000000000000
49200.00000000000000000,-0.00004980000000000,-0.00004960000000000,-0.00005130000000000,0.00000001080000000,0.00000142000000000,0.00005360000000000,0.00009290000000000,0.00000313000000000,-0.00010400000000000,0.00083600000000000,0.00035600000000000,-0.00242000000000000,0.00003000000000000,0.00103000000000000,0.06300000000000000,0.07280000000000000
49300.00000000000000000,-0.00004950000000000,-0.00004930000000000,-0.00005090000000000,0.00000000693000000,0.00000131000000000,0.00005370000000000,0.00009300000000000,0.00000351000000000,-0.00010400000000000,0.00085200000000000,0.00035300000000000,-0.00243000000000000,0.00002410000000000,0.00096900000000000,0.06330000000000000,0.07320000000000000
49400.00000000000000000,-0.00004900000000000,-0.00004880000000000,-0.00005030000000000,0.00000000175000000,0.00000116000000000,0.00005370000000000,0.00009300000000000,0.00000403000000000,-0.00010300000000000,0.00086700000000000,0.00034800000000000,-0.00242000000000000,0.00001570000000000,0.00088200000000000,0.06370000000000000,0.07360000000000000
49500.00000000000000000,-0.00004840000000000,-0.00004820000000000,-0.00004970000000000,-0.00000000438000000,0.00000098400000000,0.00005370000000000,0.00009300000000000,0.00000470000000000,-0.00010300000000000,0.00088100000000000,0.00034200000000000,-0.00242000000000000,0.00000564000000000,0.00077900000000000,0.06410000000000000,0.07400000000000000
49600.00000000000000000,-0.00004770000000000,-0.00004750000000000,-0.00004890000000000,-0.00000001110000000,0.00000078700000000,0.00005370000000000,0.00009310000000000,0.00000542000000000,-0.00010200000000000,0.00089600000000000,0.00033600000000000,-0.00241000000000000,-0.00000568000000000,0.00066200000000000,0.06440000000000000,0.07440000000000000
49700.00000000000000000,-0.00004700000000000,-0.00004690000000000,-0.00004820000000000,-0.00000001820000000,0.00000058600000000,0.00005380000000000,0.00009310000000000,0.00000618000000000,-0.00010100000000000,0.00091100000000000,0.00032900000000000,-0.00240000000000000,-0.00001760000000000,0.00054300000000000,0.06480000000000000,0.07480000000000000
49800.00000000000000000,-0.00004630000000000,-0.00004620000000000,-0.00004750000000000,-0.00000002510000000,0.00000038600000000,0.00005380000000000,0.00009320000000000,0.00000691000000000,-0.00010100000000000,0.00092700000000000,0.00032300000000000,-0.00239000000000000,-0.00002960000000000,0.00042600000000000,0.06510000000000000,0.07530000000000000
49900.00000000000000000,-0.00004570000000000,-0.00004560000000000,-0.00004680000000000,-0.00000003150000000,0.00000019700000000,0.00005380000000000,0.00009320000000000,0.00000759000000000,-0.00010000000000000,0.00094200000000000,0.00031700000000000,-0.00239000000000000,-0.00004090000000000,0.00031400000000000,0.06550000000000000,0.07570000000000000
50000.00000000000000000,-0.00004510000000000,-0.00004500000000000,-0.00004610000000000,-0.00000003710000000,0.00000003400000000,0.00005390000000000,0.00009330000000000,0.00000823000000000,-0.00009950000000000,0.00095900000000000,0.00031100000000000,-0.00238000000000000,-0.00005090000000000,0.00021900000000000,0.06590000000000000,0.07610000000000000
50100.00000000000000000,-0.00004470000000000,-0.00004460000000000,-0.00004570000000000,-0.00000004160000000,-0.00000009700000000,0.00005390000000000,0.00009340000000000,0.00000873000000000,-0.00009910000000000,0.00097600000000000,0.00030700000000000,-0.00239000000000000,-0.00005910000000000,0.00014200000000000,0.06620000000000000,0.07650000000000000
50200.00000000000000000,-0.00004440000000000,-0.00004430000000000,-0.00004540000000000,-0.00000004460000000,-0.00000018800000000,0.00005390000000000,0.00009340000000000,0.00000905000000000,-0.00009880000000000,0.00099300000000000,0.00030500000000000,-0.00239000000000000,-0.00006470000000000,0.00008990000000000,0.06660000000000000,0.07690000000000000
50300.00000000000000000,-0.00004430000000000,-0.00004420000000000,-0.00004520000000000,-0.00000004580000000,-0.00000023200000000,0.00005400000000000,0.00009350000000000,0.00000918000000000,-0.00009870000000000,0.00101000000000000,0.00030400000000000,-0.00241000000000000,-0.00006740000000000,0.00006590000000000,0.06690000000000000,0.07730000000000000
50400.00000000000000000,-0.00004440000000000,-0.00004420000000000,-0.00004530000000000,-0.00000004540000000,-0.00000023100000000,0.00005400000000000,0.00009350000000000,0.00000915000000000,-0.00009880000000000,0.00103000000000000,0.00030400000000000,-0.00243000000000000,-0.00006740000000000,0.00006890000000000,0.06730000000000000,0.07770000000000000
50500.00000000000000000,-0.00004460000000000,-0.00004450000000000,-0.00004550000000000,-0.00000004360000000,-0.00000019000000000,0.00005400000000000,0.00009350000000000,0.00000892000000000,-0.00009900000000000,0.00105000000000000,0.00030600000000000,-0.00245000000000000,-0.00006470000000000,0.00009630000000000,0.06760000000000000,0.07810000000000000
50600.00000000000000000,-0.00004500000000000,-0.00004490000000000,-0.00004590000000000,-0.00000004010000000,-0.00000010100000000,0.00005400000000000,0.00009350000000000,0.00000853000000000,-0.00009950000000000,0.00107000000000000,0.00031000000000000,-0.00249000000000000,-0.00005900000000000,0.00015200000000000,0.06800000000000000,0.07850000000000000
50700.00000000000000000,-0.00004560000000000,-0.00004540000000000,-0.00004650000000000,-0.00000003520000000,0.00000003070000000,0.00005400000000000,0.00009360000000000,0.00000799000000000,-0.00010000000000000,0.00109000000000000,0.00031400000000000,-0.00252000000000000,-0.00005050000000000,0.00023400000000000,0.06830000000000000,0.07890000000000000
50800.00000000000000000,-0.00004620000000000,-0.00004610000000000,-0.00004720000000000,-0.00000002940000000,0.00000018700000000,0.00005400000000000,0.00009360000000000,0.00000734000000000,-0.00010100000000000,0.00111000000000000,0.00032000000000000,-0.00256000000000000,-0.00004030000000000,0.00033000000000000,0.06860000000000000,0.07920000000000000
50900.00000000000000000,-0.00004690000000000,-0.00004680000000000,-0.00004790000000000,-0.00000002300000000,0.00000036600000000,0.00005400000000000,0.00009360000000000,0.00000660000000000,-0.00010100000000000,0.00113000000000000,0.00032700000000000,-0.00261000000000000,-0.00002860000000000,0.00044000000000000,0.06890000000000000,0.07960000000000000
51000.00000000000000000,-0.00004770000000000,-0.00004750000000000,-0.00004870000000000,-0.00000001620000000,0.00000055600000000,0.00005410000000000,0.00009360000000000,0.00000584000000000,-0.00010200000000000,0.00115000000000000,0.00033400000000000,-0.00265000000000000,-0.00001620000000000,0.00055600000000000,0.06920000000000000,0.07990000000000000
51100.00000000000000000,-0.00004850000000000,-0.00004830000000000,-0.00004960000000000,-0.00000000932000000,0.00000074000000000,0.00005410000000000,0.00009370000000000,0.00000506000000000,-0.00010300000000000,0.00117000000000000,0.00034100000000000,-0.00270000000000000,-0.00000362000000000,0.00066800000000000,0.06950000000000000,0.08030000000000000
51200.00000000000000000,-0.00004920000000000,-0.00004900000000000,-0.00005030000000000,-0.00000000310000000,0.00000091900000000,0.00005410000000000,0.00009370000000000,0.00000433000000000,-0.00010400000000000,0.00119000000000000,0.00034800000000000,-0.00275000000000000,0.00000828000000000,0.00077700000000000,0.06980000000000000,0.08060000000000000
51300.00000000000000000,-0.00004980000000000,-0.00004970000000000,-0.00005100000000000,0.00000000240000000,0.00000108000000000,0.00005410000000000,0.00009370000000000,0.00000368000000000,-0.00010500000000000,0.00121000000000000,0.00035400000000000,-0.00279000000000000,0.00001890000000000,0.00087300000000000,0.07010000000000000,0.08100000000000000
51400.00000000000000000,-0.00005040000000000,-0.00005020000000000,-0.00005150000000000,0.00000000705000000,0.00000120000000000,0.00005410000000000,0.00009370000000000,0.00000315000000000,-0.00010500000000000,0.00123000000000000,0.00035800000000000,-0.00283000000000000,0.00002780000000000,0.00094900000000000,0.07040000000000000,0.08140000000000000
51500.00000000000000000,-0.00005070000000000,-0.00005050000000000,-0.00005190000000000,0.00000001030000000,0.00000128000000000,0.00005410000000000,0.00009370000000000,0.00000279000000000,-0.00010500000000000,0.00125000000000000,0.00036200000000000,-0.00286000000000000,0.00003400000000000,0.00100000000000000,0.07080000000000000,0.08180000000000000
51600.00000000000000000,-0.00005090000000000,-0.00005070000000000,-0.00005210000000000,0.00000001180000000,0.00000133000000000,0.00005410000000000,0.00009370000000000,0.00000259000000000,-0.00010600000000000,0.00127000000000000,0.00036400000000000,-0.00289000000000000,0.00003740000000000,0.00103000000000000,0.07110000000000000,0.08220000000000000
51700.00000000000000000,-0.00005100000000000,-0.00005080000000000,-0.00005220000000000,0.00000001170000000,0.00000132000000000,0.00005410000000000,0.00009370000000000,0.00000251000000000,-0.00010600000000000,0.00129000000000000,0.00036400000000000,-0.00291000000000000,0.00003770000000000,0.00103000000000000,0.07150000000000000,0.08260000000000000
51800.00000000000000000,-0.00005090000000000,-0.00005070000000000,-0.00005210000000000,0.00000001030000000,0.00000128000000000,0.00005410000000000,0.00009370000000000,0.00000262000000000,-0.00010600000000000,0.00131000000000000,0.00036300000000000,-0.00293000000000000,0.00003530000000000,0.00101000000000000,0.07180000000000000,0.08300000000000000
51900.00000000000000000,-0.00005060000000000,-0.00005050000000000,-0.00005180000000000,0.00000000737000000,0.00000120000000000,0.00005410000000000,0.00009370000000000,0.00000289000000000,-0.00010500000000000,0.00133000000000000,0.00036000000000000,-0.00294000000000000,0.00002980000000000,0.00095800000000000,0.07220000000000000,0.08340000000000000
52000.00000000000000000,-0.00005020000000000,-0.00005010000000000,-0.00005130000000000,0.00000000291000000,0.00000107000000000,0.00005410000000000,0.00009370000000000,0.00000334000000000,-0.00010500000000000,0.00135000000000000,0.00035600000000000,-0.00294000000000000,0.00002140000000000,0.00088300000000000,0.07250000000000000,0.08380000000000000
52100.00000000000000000,-0.00004970000000000,-0.00004950000000000,-0.00005070000000000,-0.00000000236000000,0.00000091100000000,0.00005410000000000,0.00009380000000000,0.00000392000000000,-0.00010400000000000,0.00137000000000000,0.00035100000000000,-0.00294000000000000,0.00001110000000000,0.00079100000000000,0.07290000000000000,0.08420000000000000
52200.00000000000000000,-0.00004910000000000,-0.00004890000000000,-0.00005010000000000,-0.00000000820000000,0.00000073400000000,0.00005420000000000,0.00009380000000000,0.00000458000000000,-0.00010400000000000,0.00139000000000000,0.00034500000000000,-0.00294000000000000,-0.00000078100000000,0.00068800000000000,0.07320000000000000,0.08460000000000000
52300.00000000000000000,-0.00004850000000000,-0.00004830000000000,-0.00004940000000000,-0.00000001440000000,0.00000054700000000,0.00005420000000000,0.00009390000000000,0.00000526000000000,-0.00010300000000000,0.00141000000000000,0.00033900000000000,-0.00294000000000000,-0.00001350000000000,0.00057800000000000,0.07360000000000000,0.08500000000000000
52400.00000000000000000,-0.00004780000000000,-0.00004770000000000,-0.00004870000000000,-0.00000002080000000,0.00000036500000000,0.00005420000000000,0.00009390000000000,0.00000595000000000,-0.00010300000000000,0.00142000000000000,0.00033300000000000,-0.00294000000000000,-0.00002630000000000,0.00047100000000000,0.07400000000000000,0.08540000000000000
52500.00000000000000000,-0.00004730000000000,-0.00004710000000000,-0.00004810000000000,-0.00000002670000000,0.00000018700000000,0.00005420000000000,0.00009400000000000,0.00000657000000000,-0.00010200000000000,0.00144000000000000,0.00032800000000000,-0.00293000000000000,-0.00003860000000000,0.00036600000000000,0.07430000000000000,0.08580000000000000
52600.00000000000000000,-0.00004680000000000,-0.00004660000000000,-0.00004750000000000,-0.00000003170000000,0.00000003110000000,0.00005430000000000,0.00009400000000000,0.00000715000000000,-0.00010100000000000,0.00146000000000000,0.00032300000000000,-0.00294000000000000,-0.00004950000000000,0.00027500000000000,0.07470000000000000,0.08630000000000000
52700.00000000000000000,-0.00004630000000000,-0.00004620000000000,-0.00004710000000000,-0.00000003590000000,-0.00000009050000000,0.00005430000000000,0.00009410000000000,0.00000762000000000,-0.00010100000000000,0.00149000000000000,0.00031900000000000,-0.00294000000000000,-0.00005830000000000,0.00020400000000000,0.07500000000000000,0.08670000000000000
52800.00000000000000000,-0.00004610000000000,-0.00004590000000000,-0.00004670000000000,-0.00000003870000000,-0.00000018100000000,0.00005430000000000,0.00009410000000000,0.00000794000000000,-0.00010100000000000,0.00151000000000000,0.00031700000000000,-0.00296000000000000,-0.00006460000000000,0.00015200000000000,0.07540000000000000,0.08710000000000000
52900.00000000000000000,-0.00004600000000000,-0.00004580000000000,-0.00004660000000000,-0.00000003990000000,-0.00000022600000000,0.00005440000000000,0.00009420000000000,0.00000807000000000,-0.00010100000000000,0.00153000000000000,0.00031500000000000,-0.00297000000000000,-0.00006780000000000,0.00012800000000000,0.07570000000000000,0.08750000000000000
53000.00000000000000000,-0.00004600000000000,-0.00004580000000000,-0.00004660000000000,-0.00000003970000000,-0.00000022600000000,0.00005440000000000,0.00009420000000000,0.00000806000000000,-0.00010100000000000,0.00155000000000000,0.00031600000000000,-0.00300000000000000,-0.00006790000000000,0.00013000000000000,0.07610000000000000,0.08790000000000000
53100.00000000000000000,-0.00004620000000000,-0.00004610000000000,-0.00004690000000000,-0.00000003810000000,-0.00000019000000000,0.00005440000000000,0.00009420000000000,0.00000785000000000,-0.00010100000000000,0.00157000000000000,0.00031800000000000,-0.00303000000000000,-0.00006510000000000,0.00015400000000000,0.07640000000000000,0.08830000000000000
53200.00000000000000000,-0.00004660000000000,-0.00004640000000000,-0.00004720000000000,-0.00000003520000000,-0.00000011000000000,0.00005440000000000,0.00009420000000000,0.00000748000000000,-0.00010100000000000,0.00160000000000000,0.00032100000000000,-0.00306000000000000,-0.00005910000000000,0.00020400000000000,0.07670000000000000,0.08870000000000000
53300.00000000000000000,-0.00004710000000000,-0.00004690000000000,-0.00004780000000000,-0.00000003070000000,0.00000001000000000,0.00005440000000000,0.00009430000000000,0.00000698000000000,-0.00010200000000000,0.00162000000000000,0.00032500000000000,-0.00310000000000000,-0.00005020000000000,0.00027800000000000,0.07710000000000000,0.08900000000000000
53400.00000000000000000,-0.00004770000000000,-0.00004750000000000,-0.00004840000000000,-0.00000002550000000,0.00000015800000000,0.00005440000000000,0.00009430000000000,0.00000638000000000,-0.00010200000000000,0.00164000000000000,0.00033100000000000,-0.00314000000000000,-0.00003910000000000,0.00036900000000000,0.07740000000000000,0.08940000000000000
53500.00000000000000000,-0.00004840000000000,-0.00004820000000000,-0.00004910000000000,-0.00000001980000000,0.00000032300000000,0.00005440000000000,0.00009430000000000,0.00000570000000000,-0.00010300000000000,0.00166000000000000,0.00033700000000000,-0.00319000000000000,-0.00002670000000000,0.00047000000000000,0.07770000000000000,0.08970000000000000
53600.00000000000000000,-0.00004910000000000,-0.00004890000000000,-0.00004980000000000,-0.00000001380000000,0.00000049700000000,0.00005450000000000,0.00009430000000000,0.00000500000000000,-0.00010400000000000,0.00169000000000000,0.00034300000000000,-0.00324000000000000,-0.00001350000000000,0.00057600000000000,0.07800000000000000,0.09010000000000000
53700.00000000000000000,-0.00004980000000000,-0.00004960000000000,-0.00005060000000000,-0.00000000761000000,0.00000066800000000,0.00005450000000000,0.00009440000000000,0.00000428000000000,-0.00010500000000000,0.00171000000000000,0.00035000000000000,-0.00328000000000000,-0.00000014200000000,0.00068100000000000,0.07830000000000000,0.09050000000000000
53800.00000000000000000,-0.00005040000000000,-0.00005020000000000,-0.00005130000000000,-0.00000000223000000,0.00000083300000000,0.00005450000000000,0.00009440000000000,0.00000363000000000,-0.00010500000000000,0.00173000000000000,0.00035600000000000,-0.00333000000000000,0.00001230000000000,0.00078100000000000,0.07860000000000000,0.09080000000000000
53900.00000000000000000,-0.00005100000000000,-0.00005080000000000,-0.00005190000000000,0.00000000222000000,0.00000095300000000,0.00005450000000000,0.00009440000000000,0.00000306000000000,-0.00010600000000000,0.00176000000000000,0.00036100000000000,-0.00337000000000000,0.00002240000000000,0.00085400000000000,0.07890000000000000,0.09120000000000000
54000.00000000000000000,-0.00005150000000000,-0.00005120000000000,-0.00005230000000000,0.00000000627000000,0.00000107000000000,0.00005450000000000,0.00009440000000000,0.00000263000000000,-0.00010600000000000,0.00178000000000000,0.00036500000000000,-0.00342000000000000,0.00003150000000000,0.00092500000000000,0.07930000000000000,0.09160000000000000
54100.00000000000000000,-0.00005180000000000,-0.00005160000000000,-0.00005270000000000,0.00000000924000000,0.00000116000000000,0.00005450000000000,0.00009450000000000,0.00000232000000000,-0.00010700000000000,0.00181000000000000,0.00036800000000000,-0.00345000000000000,0.00003820000000000,0.00098000000000000,0.07970000000000000,0.09200000000000000
54200.00000000000000000,-0.00005200000000000,-0.00005180000000000,-0.00005290000000000,0.00000001030000000,0.00000119000000000,0.00005450000000000,0.00009440000000000,0.00000211000000000,-0.00010700000000000,0.00184000000000000,0.00037000000000000,-0.00348000000000000,0.00004130000000000,0.00100000000000000,0.08000000000000000,0.09240000000000000
54300.00000000000000000,-0.00005200000000000,-0.00005180000000000,-0.00005290000000000,0.00000000997000000,0.00000117000000000,0.00005450000000000,0.00009440000000000,0.00000208000000000,-0.00010700000000000,0.00186000000000000,0.00037000000000000,-0.00351000000000000,0.00004080000000000,0.00099200000000000,0.08030000000000000,0.09280000000000000
54400.00000000000000000,-0.00005190000000000,-0.00005170000000000,-0.00005270000000000,0.00000000829000000,0.00000112000000000,0.00005450000000000,0.00009440000000000,0.00000221000000000,-0.00010700000000000,0.00189000000000000,0.00036900000000000,-0.00353000000000000,0.00003730000000000,0.00096300000000000,0.08070000000000000,0.09330000000000000
54500.00000000000000000,-0.00005160000000000,-0.00005140000000000,-0.00005250000000000,0.00000000517000000,0.00000103000000000,0.00005450000000000,0.00009450000000000,0.00000250000000000,-0.00010700000000000,0.00191000000000000,0.00036600000000000,-0.00355000000000000,0.00003060000000000,0.00091200000000000,0.08110000000000000,0.09370000000000000
54600.00000000000000000,-0.00005120000000000,-0.00005100000000000,-0.00005200000000000,0.00000000075800000,0.00000089900000000,0.00005460000000000,0.00009450000000000,0.00000296000000000,-0.00010600000000000,0.00193000000000000,0.00036200000000000,-0.00355000000000000,0.00002080000000000,0.00083800000000000,0.08140000000000000,0.09410000000000000
54700.00000000000000000,-0.00005070000000000,-0.00005040000000000,-0.00005140000000000,-0.00000000441000000,0.00000073800000000,0.00005460000000000,0.00009450000000000,0.00000355000000000,-0.00010600000000000,0.00196000000000000,0.00035600000000000,-0.00356000000000000,0.00000860000000000,0.00074300000000000,0.08180000000000000,0.09450000000000000
54800.00000000000000000,-0.00005010000000000,-0.00004990000000000,-0.00005070000000000,-0.00000000986000000,0.00000056200000000,0.00005460000000000,0.00009460000000000,0.00000419000000000,-0.00010500000000000,0.00198000000000000,0.00035100000000000,-0.00356000000000000,-0.00000473000000000,0.00064000000000000,0.08220000000000000,0.09490000000000000
54900.00000000000000000,-0.00004950000000000,-0.00004930000000000,-0.00005010000000000,-0.00000001570000000,0.00000038100000000,0.00005460000000000,0.00009460000000000,0.00000481000000000,-0.00010400000000000,0.00200000000000000,0.00034500000000000,-0.00357000000000000,-0.00001860000000000,0.00053400000000000,0.08250000000000000,0.09540000000000000
55000.00000000000000000,-0.00004890000000000,-0.00004870000000000,-0.00004950000000000,-0.00000002150000000,0.00000022200000000,0.00005470000000000,0.00009470000000000,0.00000543000000000,-0.00010400000000000,0.00203000000000000,0.00034000000000000,-0.00357000000000000,-0.00003190000000000,0.00044100000000000,0.08290000000000000,0.09580000000000000
55100.00000000000000000,-0.00004850000000000,-0.00004830000000000,-0.00004900000000000,-0.00000002610000000,0.00000007090000000,0.00005470000000000,0.00009470000000000,0.00000596000000000,-0.00010300000000000,0.00205000000000000,0.00033500000000000,-0.00357000000000000,-0.00004370000000000,0.00035300000000000,0.08320000000000000,0.09620000000000000
55200.00000000000000000,-0.00004810000000000,-0.00004790000000000,-0.00004850000000000,-0.00000002990000000,-0.00000005480000000,0.00005470000000000,0.00009470000000000,0.00000641000000000,-0.00010300000000000,0.00207000000000000,0.00033100000000000,-0.00359000000000000,-0.00005350000000000,0.00028000000000000,0.08360000000000000,0.09660000000000000
55300.00000000000000000,-0.00004780000000000,-0.00004760000000000,-0.00004820000000000,-0.00000003290000000,-0.00000014800000000,0.00005470000000000,0.00009480000000000,0.00000674000000000,-0.00010300000000000,0.00210000000000000,0.00032900000000000,-0.00360000000000000,-0.00006100000000000,0.00022600000000000,0.08400000000000000,0.09700000000000000
55400.00000000000000000,-0.00004760000000000,-0.00004740000000000,-0.00004800000000000,-0.00000003470000000,-0.00000020600000000,0.00005480000000000,0.00009480000000000,0.00000694000000000,-0.00010300000000000,0.00213000000000000,0.00032700000000000,-0.00362000000000000,-0.00006560000000000,0.00019400000000000,0.08430000000000000,0.09740000000000000
55500.00000000000000000,-0.00004760000000000,-0.00004740000000000,-0.00004800000000000,-0.00000003510000000,-0.00000021900000000,0.00005480000000000,0.00009490000000000,0.00000699000000000,-0.00010300000000000,0.00215000000000000,0.00032700000000000,-0.00365000000000000,-0.00006690000000000,0.00018900000000000,0.08460000000000000,0.09780000000000000
55600.00000000000000000,-0.00004770000000000,-0.00004750000000000,-0.00004810000000000,-0.00000003400000000,-0.00000020100000000,0.00005480000000000,0.00009490000000000,0.00000686000000000,-0.00010300000000000,0.00218000000000000,0.00032800000000000,-0.00368000000000000,-0.00006510000000000,0.00020100000000000,0.08500000000000000,0.09820000000000000
55700.00000000000000000,-0.00004800000000000,-0.00004780000000000,-0.00004840000000000,-0.00000003180000000,-0.00000014600000000,0.00005480000000000,0.00009490000000000,0.00000657000000000,-0.00010300000000000,0.00221000000000000,0.00033100000000000,-0.00371000000000000,-0.00006020000000000,0.00023700000000000,0.08530000000000000,0.09860000000000000
55800.00000000000000000,-0.00004850000000000,-0.00004830000000000,-0.00004890000000000,-0.00000002840000000,-0.00000004440000000,0.00005480000000000,0.00009490000000000,0.00000614000000000,-0.00010300000000000,0.00223000000000000,0.00033400000000000,-0.00375000000000000,-0.00005180000000000,0.00029900000000000,0.08560000000000000,0.09900000000000000
55900.00000000000000000,-0.00004900000000000,-0.00004880000000000,-0.00004940000000000,-0.00000002380000000,0.00000008540000000,0.00005480000000000,0.00009500000000000,0.00000560000000000,-0.00010400000000000,0.00226000000000000,0.00033900000000000,-0.00380000000000000,-0.00004070000000000,0.00037900000000000,0.08590000000000000,0.09930000000000000
56000.00000000000000000,-0.00004970000000000,-0.00004940000000000,-0.00005010000000000,-0.00000001850000000,0.00000024300000000,0.00005480000000000,0.00009500000000000,0.00000497000000000,-0.00010500000000000,0.00228000000000000,0.00034500000000000,-0.00384000000000000,-0.00002740000000000,0.00047500000000000,0.08630000000000000,0.09970000000000000
56100.00000000000000000,-0.00005030000000000,-0.00005010000000000,-0.00005080000000000,-0.00000001300000000,0.00000041000000000,0.00005490000000000,0.00009500000000000,0.00000429000000000,-0.00010500000000000,0.00231000000000000,0.00035100000000000,-0.00389000000000000,-0.00001320000000000,0.00057700000000000,0.08660000000000000,0.10000000000000000
56200.00000000000000000,-0.00005100000000000,-0.00005070000000000,-0.00005150000000000,-0.00000000747000000,0.00000057000000000,0.00005490000000000,0.00009500000000000,0.00000362000000000,-0.00010600000000000,0.00234000000000000,0.00035700000000000,-0.00395000000000000,0.00000087700000000,0.00067400000000000,0.08690000000000000,0.10000000000000000
56300.00000000000000000,-0.00005170000000000,-0.00005140000000000,-0.00005220000000000,-0.00000000246000000,0.00000072500000000,0.00005490000000000,0.00009510000000000,0.00000295000000000,-0.00010700000000000,0.00236000000000000,0.00036300000000000,-0.00399000000000000,0.00001420000000000,0.00076800000000000,0.08720000000000000,0.10100000000000000
56400.00000000000000000,-0.00005220000000000,-0.00005200000000000,-0.00005280000000000,0.00000000200000000,0.00000086000000000,0.00005490000000000,0.00009510000000000,0.00000239000000000,-0.00010700000000000,0.00239000000000000,0.00036900000000000,-0.00404000000000000,0.00002600000000000,0.00084900000000000,0.08750000000000000,0.10100000000000000
56500.00000000000000000,-0.00005260000000000,-0.00005240000000000,-0.00005320000000000,0.00000000538000000,0.00000096200000000,0.00005490000000000,0.00009510000000000,0.00000199000000000,-0.00010800000000000,0.00242000000000000,0.00037200000000000,-0.00408000000000000,0.00003510000000000,0.00091200000000000,0.08780000000000000,0.10200000000000000
56600.00000000000000000,-0.00005290000000000,-0.00005260000000000,-0.00005350000000000,0.00000000746000000,0.00000103000000000,0.00005490000000000,0.00009510000000000,0.00000174000000000,-0.00010800000000000,0.00244000000000000,0.00037500000000000,-0.00412000000000000,0.00004090000000000,0.00095100000000000,0.08820000000000000,0.10200000000000000
56700.00000000000000000,-0.00005300000000000,-0.00005270000000000,-0.00005360000000000,0.00000000830000000,0.00000105000000000,0.00005490000000000,0.00009510000000000,0.00000160000000000,-0.00010800000000000,0.00247000000000000,0.00037600000000000,-0.00415000000000000,0.00004350000000000,0.00096500000000000,0.08850000000000000,0.10200000000000000
56800.00000000000000000,-0.00005310000000000,-0.00005280000000000,-0.00005360000000000,0.00000000808000000,0.00000103000000000,0.00005490000000000,0.00009510000000000,0.00000157000000000,-0.00010800000000000,0.00250000000000000,0.00037600000000000,-0.00418000000000000,0.00004310000000000,0.00096000000000000,0.08890000000000000,0.10300000000000000
56900.00000000000000000,-0.00005300000000000,-0.00005270000000000,-0.00005350000000000,0.00000000642000000,0.00000099200000000,0.00005490000000000,0.00009520000000000,0.00000170000000000,-0.00010800000000000,0.00253000000000000,0.00037500000000000,-0.00420000000000000,0.00003940000000000,0.00093700000000000,0.08920000000000000,0.10300000000000000
57000.00000000000000000,-0.00005270000000000,-0.00005240000000000,-0.00005320000000000,0.00000000354000000,0.00000090300000000,0.00005490000000000,0.00009520000000000,0.00000195000000000,-0.00010800000000000,0.00255000000000000,0.00037200000000000,-0.00422000000000000,0.00003220000000000,0.00088600000000000,0.08960000000000000,0.10300000000000000
57100.00000000000000000,-0.00005240000000000,-0.00005210000000000,-0.00005280000000000,-0.00000000028600000,0.00000078300000000,0.00005490000000000,0.00009520000000000,0.00000236000000000,-0.00010800000000000,0.00258000000000000,0.00036900000000000,-0.00423000000000000,0.00002220000000000,0.00081600000000000,0.08990000000000000,0.10400000000000000
57200.00000000000000000,-0.00005190000000000,-0.00005160000000000,-0.00005230000000000,-0.00000000468000000,0.00000064200000000,0.00005500000000000,0.00009520000000000,0.00000289000000000,-0.00010700000000000,0.00261000000000000,0.00036400000000000,-0.00424000000000000,0.00001020000000000,0.00073400000000000,0.09030000000000000,0.10400000000000000
57300.00000000000000000,-0.00005130000000000,-0.00005110000000000,-0.00005170000000000,-0.00000000960000000,0.00000047900000000,0.00005500000000000,0.00009530000000000,0.00000348000000000,-0.00010700000000000,0.00263000000000000,0.00035900000000000,-0.00425000000000000,-0.00000365000000000,0.00063900000000000,0.09060000000000000,0.10500000000000000
57400.00000000000000000,-0.00005080000000000,-0.00005050000000000,-0.00005110000000000,-0.00000001500000000,0.00000031700000000,0.00005500000000000,0.00009530000000000,0.00000410000000000,-0.00010600000000000,0.00266000000000000,0.00035300000000000,-0.00426000000000000,-0.00001810000000000,0.00054400000000000,0.09100000000000000,0.10500000000000000
57500.00000000000000000,-0.00005030000000000,-0.00005000000000000,-0.00005050000000000,-0.00000002020000000,0.00000016200000000,0.00005510000000000,0.00009540000000000,0.00000466000000000,-0.00010500000000000,0.00269000000000000,0.00034800000000000,-0.00427000000000000,-0.00003210000000000,0.00045400000000000,0.09130000000000000,0.10600000000000000
57600.00000000000000000,-0.00004980000000000,-0.00004950000000000,-0.00005000000000000,-0.00000002450000000,0.00000001120000000,0.00005510000000000,0.00009540000000000,0.00000515000000000,-0.00010500000000000,0.00272000000000000,0.00034400000000000,-0.00428000000000000,-0.00004490000000000,0.00036600000000000,0.09170000000000000,0.10600000000000000
57700.00000000000000000,-0.00004940000000000,-0.00004910000000000,-0.00004960000000000,-0.00000002820000000,-0.00000010300000000,0.00005510000000000,0.00009540000000000,0.00000560000000000,-0.00010500000000000,0.00274000000000000,0.00034000000000000,-0.00429000000000000,-0.00005530000000000,0.00030000000000000,0.09210000000000000,0.10600000000000000
57800.00000000000000000,-0.00004920000000000,-0.00004890000000000,-0.00004930000000000,-0.00000003080000000,-0.00000018600000000,0.00005510000000000,0.00009550000000000,0.00000589000000000,-0.00010400000000000,0.00277000000000000,0.00033800000000000,-0.00431000000000000,-0.00006270000000000,0.00025300000000000,0.09240000000000000,0.10700000000000000
57900.00000000000000000,-0.00004910000000000,-0.00004880000000000,-0.00004920000000000,-0.00000003180000000,-0.00000022600000000,0.00005510000000000,0.00009550000000000,0.00000601000000000,-0.00010400000000000,0.00280000000000000,0.00033700000000000,-0.00434000000000000,-0.00006620000000000,0.00023100000000000,0.09280000000000000,0.10700000000000000
58000.00000000000000000,-0.00004910000000000,-0.00004880000000000,-0.00004920000000000,-0.00000003160000000,-0.00000022400000000,0.00005520000000000,0.00009550000000000,0.00000600000000000,-0.00010400000000000,0.00283000000000000,0.00033700000000000,-0.00437000000000000,-0.00006610000000000,0.00023400000000000,0.09310000000000000,0.10800000000000000
58100.00000000000000000,-0.00004930000000000,-0.00004900000000000,-0.00004940000000000,-0.00000003030000000,-0.00000019500000000,0.00005520000000000,0.00009560000000000,0.00000581000000000,-0.00010500000000000,0.00286000000000000,0.00033900000000000,-0.00440000000000000,-0.00006300000000000,0.00025300000000000,0.09340000000000000,0.10800000000000000
58200.00000000000000000,-0.00004970000000000,-0.00004940000000000,-0.00004980000000000,-0.00000002790000000,-0.00000012400000000,0.00005520000000000,0.00009560000000000,0.00000548000000000,-0.00010500000000000,0.00289000000000000,0.00034200000000000,-0.00445000000000000,-0.00005630000000000,0.00029700000000000,0.09380000000000000,0.10800000000000000
58300.00000000000000000,-0.00005010000000000,-0.00004980000000000,-0.00005020000000000,-0.00000002420000000,-0.00000001490000000,0.00005520000000000,0.00009560000000000,0.00000502000000000,-0.00010500000000000,0.00292000000000000,0.00034600000000000,-0.00449000000000000,-0.00004620000000000,0.00036500000000000,0.09410000000000000,0.10900000000000000
58400.00000000000000000,-0.00005070000000000,-0.00005030000000000,-0.00005080000000000,-0.00000001990000000,0.00000011000000000,0.00005520000000000,0.00009560000000000,0.00000449000000000,-0.00010600000000000,0.00295000000000000,0.00035100000000000,-0.00454000000000000,-0.00003420000000000,0.00044100000000000,0.09440000000000000,0.10900000000000000
58500.00000000000000000,-0.00005120000000000,-0.00005090000000000,-0.00005140000000000,-0.00000001550000000,0.00000025500000000,0.00005520000000000,0.00009570000000000,0.00000392000000000,-0.00010700000000000,0.00298000000000000,0.00035600000000000,-0.00458000000000000,-0.00002070000000000,0.00052900000000000,0.09470000000000000,0.10900000000000000
58600.00000000000000000,-0.00005180000000000,-0.00005150000000000,-0.00005200000000000,-0.00000001060000000,0.00000040600000000,0.00005520000000000,0.00009570000000000,0.00000331000000000,-0.00010700000000000,0.00301000000000000,0.00036100000000000,-0.00464000000000000,-0.00000637000000000,0.00062000000000000,0.09500000000000000,0.11000000000000000
58700.00000000000000000,-0.00005250000000000,-0.00005210000000000,-0.00005270000000000,-0.00000000565000000,0.00000055200000000,0.00005530000000000,0.00009570000000000,0.00000269000000000,-0.00010800000000000,0.00304000000000000,0.00036700000000000,-0.00469000000000000,0.00000787000000000,0.00070800000000000,0.09530000000000000,0.11000000000000000
58800.00000000000000000,-0.00005310000000000,-0.00005270000000000,-0.00005330000000000,-0.00000000153000000,0.00000069400000000,0.00005530000000000,0.00009570000000000,0.00000209000000000,-0.00010800000000000,0.00307000000000000,0.00037200000000000,-0.00474000000000000,0.00002120000000000,0.00079400000000000,0.09560000000000000,0.11100000000000000
58900.00000000000000000,-0.00005360000000000,-0.00005320000000000,-0.00005380000000000,0.00000000227000000,0.00000081100000000,0.00005530000000000,0.00009580000000000,0.00000159000000000,-0.00010900000000000,0.00310000000000000,0.00037700000000000,-0.00478000000000000,0.00003270000000000,0.00086500000000000,0.09600000000000000,0.11100000000000000
59000.00000000000000000,-0.00005390000000000,-0.00005360000000000,-0.00005420000000000,0.00000000529000000,0.00000089500000000,0.00005530000000000,0.00009580000000000,0.00000125000000000,-0.00010900000000000,0.00313000000000000,0.00038000000000000,-0.00483000000000000,0.00004130000000000,0.00091600000000000,0.09630000000000000,0.11100000000000000
59100.00000000000000000,-0.00005410000000000,-0.00005370000000000,-0.00005440000000000,0.00000000680000000,0.00000094000000000,0.00005530000000000,0.00009580000000000,0.00000107000000000,-0.00011000000000000,0.00316000000000000,0.00038200000000000,-0.00486000000000000,0.00004620000000000,0.00094500000000000,0.09660000000000000,0.11200000000000000
59200.00000000000000000,-0.00005420000000000,-0.00005380000000000,-0.00005450000000000,0.00000000687000000,0.00000094600000000,0.00005530000000000,0.00009580000000000,0.00000100000000000,-0.00011000000000000,0.00319000000000000,0.00038300000000000,-0.00490000000000000,0.00004720000000000,0.00095000000000000,0.09700000000000000,0.11200000000000000
59300.00000000000000000,-0.00005410000000000,-0.00005380000000000,-0.00005440000000000,0.00000000581000000,0.00000091700000000,0.00005530000000000,0.00009580000000000,0.00000106000000000,-0.00011000000000000,0.00322000000000000,0.00038200000000000,-0.00493000000000000,0.00004470000000000,0.00093400000000000,0.09730000000000000,0.11200000000000000
59400.00000000000000000,-0.00005400000000000,-0.00005360000000000,-0.00005420000000000,0.00000000368000000,0.00000084800000000,0.00005530000000000,0.00009590000000000,0.00000125000000000,-0.00010900000000000,0.00325000000000000,0.00038000000000000,-0.00495000000000000,0.00003840000000000,0.00089500000000000,0.09770000000000000,0.11300000000000000
59500.00000000000000000,-0.00005370000000000,-0.00005330000000000,-0.00005380000000000,0.00000000026100000,0.00000074000000000,0.00005540000000000,0.00009590000000000,0.00000161000000000,-0.00010900000000000,0.00328000000000000,0.00037700000000000,-0.00497000000000000,0.00002850000000000,0.00083300000000000,0.09800000000000000,0.11300000000000000
59600.00000000000000000,-0.00005320000000000,-0.00005280000000000,-0.00005330000000000,-0.00000000384000000,0.00000061000000000,0.00005540000000000,0.00009590000000000,0.00000209000000000,-0.00010900000000000,0.00331000000000000,0.00037300000000000,-0.00499000000000000,0.00001620000000000,0.00075700000000000,0.09840000000000000,0.11400000000000000
59700.00000000000000000,-0.00005270000000000,-0.00005230000000000,-0.00005280000000000,-0.00000000817000000,0.00000046600000000,0.00005540000000000,0.00009590000000000,0.00000262000000000,-0.00010800000000000,0.00334000000000000,0.00036800000000000,-0.00500000000000000,0.00000253000000000,0.00067300000000000,0.09870000000000000,0.11400000000000000
59800.00000000000000000,-0.00005220000000000,-0.00005190000000000,-0.00005230000000000,-0.00000001270000000,0.00000031500000000,0.00005540000000000,0.00009600000000000,0.00000317000000000,-0.00010800000000000,0.00337000000000000,0.00036300000000000,-0.00501000000000000,-0.00001180000000000,0.00058600000000000,0.09910000000000000,0.11500000000000000
59900.00000000000000000,-0.00005180000000000,-0.00005140000000000,-0.00005170000000000,-0.00000001730000000,0.00000017100000000,0.00005540000000000,0.00009600000000000,0.00000369000000000,-0.00010700000000000,0.00340000000000000,0.00035800000000000,-0.00503000000000000,-0.00002590000000000,0.00050100000000000,0.09950000000000000,0.11500000000000000
60000.00000000000000000,-0.00005130000000000,-0.00005100000000000,-0.00005130000000000,-0.00000002140000000,0.00000003130000000,0.00005540000000000,0.00009600000000000,0.00000414000000000,-0.00010700000000000,0.00343000000000000,0.00035400000000000,-0.00504000000000000,-0.00003920000000000,0.00042100000000000,0.09980000000000000,0.11500000000000000
60100.00000000000000000,-0.00005100000000000,-0.00005060000000000,-0.00005090000000000,-0.00000002480000000,-0.00000008390000000,0.00005550000000000,0.00009610000000000,0.00000457000000000,-0.00010600000000000,0.00347000000000000,0.00035100000000000,-0.00506000000000000,-0.00005050000000000,0.00035400000000000,0.10000000000000000,0.11600000000000000
60200.00000000000000000,-0.00005070000000000,-0.00005030000000000,-0.00005060000000000,-0.00000002760000000,-0.00000016800000000,0.00005550000000000,0.00009610000000000,0.00000488000000000,-0.00010600000000000,0.00350000000000000,0.00034800000000000,-0.00509000000000000,-0.00005900000000000,0.00030600000000000,0.10100000000000000,0.11600000000000000
60300.00000000000000000,-0.00005060000000000,-0.00005020000000000,-0.00005040000000000,-0.00000002910000000,-0.00000022300000000,0.00005550000000000,0.00009620000000000,0.00000505000000000,-0.00010600000000000,0.00353000000000000,0.00034700000000000,-0.00511000000000000,-0.00006420000000000,0.00027500000000000,0.10100000000000000,0.11700000000000000
60400.00000000000000000,-0.00005050000000000,-0.00005010000000000,-0.00005030000000000,-0.00000002920000000,-0.00000023500000000,0.00005550000000000,0.00009620000000000,0.00000510000000000,-0.00010600000000000,0.00356000000000000,0.00034700000000000,-0.00514000000000000,-0.00006540000000000,0.00027000000000000,0.10100000000000000,0.11700000000000000
60500.00000000000000000,-0.00005070000000000,-0.00005030000000000,-0.00005050000000000,-0.00000002830000000,-0.00000021800000000,0.00005560000000000,0.00009620000000000,0.00000496000000000,-0.00010600000000000,0.00360000000000000,0.00034800000000000,-0.00518000000000000,-0.00006320000000000,0.00028200000000000,0.10200000000000000,0.11700000000000000
60600.00000000000000000,-0.00005100000000000,-0.00005060000000000,-0.00005080000000000,-0.00000002650000000,-0.00000015800000000,0.00005560000000000,0.00009620000000000,0.00000468000000000,-0.00010600000000000,0.00363000000000000,0.00035000000000000,-0.00523000000000000,-0.00005710000000000,0.00031900000000000,0.10200000000000000,0.11800000000000000
60700.00000000000000000,-0.00005140000000000,-0.00005100000000000,-0.00005120000000000,-0.00000002330000000,-0.00000005740000000,0.00005560000000000,0.00009630000000000,0.00000426000000000,-0.00010700000000000,0.00366000000000000,0.00035400000000000,-0.00527000000000000,-0.00004700000000000,0.00038100000000000,0.10200000000000000,0.11800000000000000
60800.00000000000000000,-0.00005190000000000,-0.00005150000000000,-0.00005180000000000,-0.00000001920000000,0.00000006040000000,0.00005560000000000,0.00009630000000000,0.00000374000000000,-0.00010700000000000,0.00369000000000000,0.00035900000000000,-0.00532000000000000,-0.00003440000000000,0.00045200000000000,0.10300000000000000,0.11800000000000000
60900.00000000000000000,-0.00005250000000000,-0.00005210000000000,-0.00005240000000000,-0.00000001490000000,0.00000020200000000,0.00005560000000000,0.00009630000000000,0.00000318000000000,-0.00010800000000000,0.00373000000000000,0.00036400000000000,-0.00537000000000000,-0.00001990000000000,0.00053800000000000,0.10300000000000000,0.11900000000000000
61000.00000000000000000,-0.00005310000000000,-0.00005260000000000,-0.00005300000000000,-0.00000001040000000,0.00000034600000000,0.00005560000000000,0.00009640000000000,0.00000261000000000,-0.00010900000000000,0.00376000000000000,0.00036900000000000,-0.00543000000000000,-0.00000493000000000,0.00062500000000000,0.10300000000000000,0.11900000000000000
61100.00000000000000000,-0.00005370000000000,-0.00005320000000000,-0.00005360000000000,-0.00000000600000000,0.00000048200000000,0.00005560000000000,0.00009640000000000,0.00000202000000000,-0.00010900000000000,0.00379000000000000,0.00037400000000000,-0.00548000000000000,0.00000962000000000,0.00070700000000000,0.10300000000000000,0.12000000000000000
61200.00000000000000000,-0.00005420000000000,-0.00005380000000000,-0.00005420000000000,-0.00000000230000000,0.00000061600000000,0.00005570000000000,0.00009640000000000,0.00000147000000000,-0.00011000000000000,0.00383000000000000,0.00037900000000000,-0.00553000000000000,0.00002320000000000,0.00078700000000000,0.10400000000000000,0.12000000000000000
61300.00000000000000000,-0.00005470000000000,-0.00005420000000000,-0.00005460000000000,0.00000000093600000,0.00000072000000000,0.00005570000000000,0.00009640000000000,0.00000102000000000,-0.00011000000000000,0.00386000000000000,0.00038400000000000,-0.00558000000000000,0.00003440000000000,0.00085000000000000,0.10400000000000000,0.12000000000000000
61400.00000000000000000,-0.00005500000000000,-0.00005450000000000,-0.00005500000000000,0.00000000340000000,0.00000079600000000,0.00005570000000000,0.00009650000000000,0.00000070400000000,-0.00011100000000000,0.00389000000000000,0.00038600000000000,-0.00562000000000000,0.00004280000000000,0.00089600000000000,0.10400000000000000,0.12100000000000000
61500.00000000000000000,-0.00005520000000000,-0.00005470000000000,-0.00005510000000000,0.00000000476000000,0.00000083800000000,0.00005570000000000,0.00009650000000000,0.00000055400000000,-0.00011100000000000,0.00393000000000000,0.00038800000000000,-0.00566000000000000,0.00004760000000000,0.00092200000000000,0.10500000000000000,0.12100000000000000
61600.00000000000000000,-0.00005530000000000,-0.00005480000000000,-0.00005520000000000,0.00000000489000000,0.00000084000000000,0.00005570000000000,0.00009650000000000,0.00000048600000000,-0.00011100000000000,0.00396000000000000,0.00038900000000000,-0.00570000000000000,0.00004860000000000,0.00092500000000000,0.10500000000000000,0.12100000000000000
61700.00000000000000000,-0.00005520000000000,-0.00005470000000000,-0.00005520000000000,0.00000000391000000,0.00000081500000000,0.00005570000000000,0.00009650000000000,0.00000052700000000,-0.00011100000000000,0.00400000000000000,0.00038800000000000,-0.00573000000000000,0.00004610000000000,0.00091200000000000,0.10500000000000000,0.12200000000000000
61800.00000000000000000,-0.00005510000000000,-0.00005460000000000,-0.00005500000000000,0.00000000194000000,0.00000075200000000,0.00005570000000000,0.00009650000000000,0.00000071700000000,-0.00011100000000000,0.00403000000000000,0.00038700000000000,-0.00576000000000000,0.00003980000000000,0.00087600000000000,0.10600000000000000,0.12200000000000000
61900.00000000000000000,-0.00005480000000000,-0.00005430000000000,-0.00005470000000000,-0.00000000104000000,0.00000065400000000,0.00005570000000000,0.00009650000000000,0.00000101000000000,-0.00011000000000000,0.00406000000000000,0.00038400000000000,-0.00578000000000000,0.00002990000000000,0.00081900000000000,0.10600000000000000,0.12300000000000000
62000.00000000000000000,-0.00005440000000000,-0.00005390000000000,-0.00005420000000000,-0.00000000472000000,0.00000053300000000,0.00005570000000000,0.00009660000000000,0.00000146000000000,-0.00011000000000000,0.00410000000000000,0.00037900000000000,-0.00580000000000000,0.00001740000000000,0.00075000000000000,0.10600000000000000,0.12300000000000000
62100.00000000000000000,-0.00005390000000000,-0.00005340000000000,-0.00005370000000000,-0.00000000873000000,0.00000039300000000,0.00005580000000000,0.00009660000000000,0.00000199000000000,-0.00011000000000000,0.00413000000000000,0.00037500000000000,-0.00582000000000000,0.00000299000000000,0.00066800000000000,0.10700000000000000,0.12300000000000000
62200.00000000000000000,-0.00005340000000000,-0.00005300000000000,-0.00005320000000000,-0.00000001310000000,0.00000024600000000,0.00005580000000000,0.00009670000000000,0.00000250000000000,-0.00010900000000000,0.00417000000000000,0.00037000000000000,-0.00584000000000000,-0.00001220000000000,0.00058300000000000,0.10700000000000000,0.12400000000000000
62300.00000000000000000,-0.00005300000000000,-0.00005250000000000,-0.00005260000000000,-0.00000001740000000,0.00000011000000000,0.00005580000000000,0.00009670000000000,0.00000301000000000,-0.00010900000000000,0.00420000000000000,0.00036600000000000,-0.00586000000000000,-0.00002700000000000,0.00050400000000000,0.10800000000000000,0.12400000000000000
62400.00000000000000000,-0.00005260000000000,-0.00005210000000000,-0.00005220000000000,-0.00000002100000000,-0.00000001980000000,0.00005580000000000,0.00009670000000000,0.00000345000000000,-0.00010800000000000,0.00423000000000000,0.00036200000000000,-0.00588000000000000,-0.00004060000000000,0.00042900000000000,0.10800000000000000,0.12500000000000000
62500.00000000000000000,-0.00005230000000000,-0.00005180000000000,-0.00005190000000000,-0.00000002410000000,-0.00000012500000000,0.00005590000000000,0.00009670000000000,0.00000380000000000,-0.00010800000000000,0.00427000000000000,0.00035900000000000,-0.00590000000000000,-0.00005180000000000,0.00036800000000000,0.10800000000000000,0.12500000000000000
62600.00000000000000000,-0.00005200000000000,-0.00005150000000000,-0.00005160000000000,-0.00000002630000000,-0.00000019800000000,0.00005590000000000,0.00009680000000000,0.00000408000000000,-0.00010800000000000,0.00431000000000000,0.00035700000000000,-0.00593000000000000,-0.00005960000000000,0.00032700000000000,0.10900000000000000,0.12600000000000000
62700.00000000000000000,-0.00005190000000000,-0.00005140000000000,-0.00005150000000000,-0.00000002720000000,-0.00000023600000000,0.00005590000000000,0.00009680000000000,0.00000419000000000,-0.00010800000000000,0.00434000000000000,0.00035600000000000,-0.00596000000000000,-0.00006340000000000,0.00030600000000000,0.10900000000000000,0.12600000000000000
62800.00000000000000000,-0.00005200000000000,-0.00005150000000000,-0.00005150000000000,-0.00000002700000000,-0.00000023400000000,0.00005590000000000,0.00009680000000000,0.00000415000000000,-0.00010800000000000,0.00438000000000000,0.00035600000000000,-0.00600000000000000,-0.00006330000000000,0.00030900000000000,0.10900000000000000,0.12600000000000000
62900.00000000000000000,-0.00005220000000000,-0.00005170000000000,-0.00005170000000000,-0.00000002590000000,-0.00000020600000000,0.00005590000000000,0.00009690000000000,0.00000401000000000,-0.00010800000000000,0.00441000000000000,0.00035800000000000,-0.00604000000000000,-0.00005980000000000,0.00032700000000000,0.11000000000000000,0.12700000000000000
63000.00000000000000000,-0.00005250000000000,-0.00005200000000000,-0.00005200000000000,-0.00000002380000000,-0.00000014000000000,0.00005590000000000,0.00009690000000000,0.00000369000000000,-0.00010800000000000,0.00445000000000000,0.00036000000000000,-0.00609000000000000,-0.00005230000000000,0.00036800000000000,0.11000000000000000,0.12700000000000000
63100.00000000000000000,-0.00005290000000000,-0.00005240000000000,-0.00005250000000000,-0.00000002070000000,-0.00000003870000000,0.00005600000000000,0.00009690000000000,0.00000327000000000,-0.00010900000000000,0.00449000000000000,0.00036400000000000,-0.00614000000000000,-0.00004120000000000,0.00043000000000000,0.11000000000000000,0.12700000000000000
63200.00000000000000000,-0.00005340000000000,-0.00005290000000000,-0.00005300000000000,-0.00000001700000000,0.00000007520000000,0.00005600000000000,0.00009690000000000,0.00000278000000000,-0.00010900000000000,0.00452000000000000,0.00036900000000000,-0.00619000000000000,-0.00002800000000000,0.00049800000000000,0.11100000000000000,0.12800000000000000
63300.00000000000000000,-0.00005400000000000,-0.00005340000000000,-0.00005350000000000,-0.00000001330000000,0.00000021000000000,0.00005600000000000,0.00009700000000000,0.00000224000000000,-0.00011000000000000,0.00456000000000000,0.00037300000000000,-0.00624000000000000,-0.00001330000000000,0.00057900000000000,0.11100000000000000,0.12800000000000000
63400.00000000000000000,-0.00005450000000000,-0.00005390000000000,-0.00005410000000000,-0.00000000919000000,0.00000034200000000,0.00005600000000000,0.00009700000000000,0.00000171000000000,-0.00011000000000000,0.00459000000000000,0.00037800000000000,-0.00630000000000000,0.00000185000000000,0.00065900000000000,0.11100000000000000,0.12900000000000000
63500.00000000000000000,-0.00005500000000000,-0.00005450000000000,-0.00005470000000000,-0.00000000523000000,0.00000047000000000,0.00005600000000000,0.00009700000000000,0.00000117000000000,-0.00011100000000000,0.00463000000000000,0.00038300000000000,-0.00635000000000000,0.00001650000000000,0.00073500000000000,0.11200000000000000,0.12900000000000000
63600.00000000000000000,-0.00005550000000000,-0.00005500000000000,-0.00005520000000000,-0.00000000205000000,0.00000058900000000,0.00005600000000000,0.00009700000000000,0.00000065900000000,-0.00011100000000000,0.00466000000000000,0.00038800000000000,-0.00640000000000000,0.00002980000000000,0.00080600000000000,0.11200000000000000,0.12900000000000000
63700.00000000000000000,-0.00005590000000000,-0.00005540000000000,-0.00005560000000000,0.00000000074700000,0.00000067900000000,0.00005600000000000,0.00009710000000000,0.00000027400000000,-0.00011200000000000,0.00470000000000000,0.00039200000000000,-0.00646000000000000,0.00004050000000000,0.00086000000000000,0.11200000000000000,0.13000000000000000
63800.00000000000000000,-0.00005620000000000,-0.00005560000000000,-0.00005590000000000,0.00000000279000000,0.00000074200000000,0.00005610000000000,0.00009710000000000,0.00000003150000000,-0.00011200000000000,0.00474000000000000,0.00039400000000000,-0.00650000000000000,0.00004800000000000,0.00089900000000000,0.11300000000000000,0.13000000000000000
63900.00000000000000000,-0.00005630000000000,-0.00005570000000000,-0.00005600000000000,0.00000000338000000,0.00000076500000000,0.00005610000000000,0.00009710000000000,-0.00000007560000000,-0.00011200000000000,0.00477000000000000,0.00039500000000000,-0.00654000000000000,0.00005110000000000,0.00091300000000000,0.11300000000000000,0.13000000000000000
64000.00000000000000000,-0.00005630000000000,-0.00005570000000000,-0.00005600000000000,0.00000000292000000,0.00000075300000000,0.00005610000000000,0.00009720000000000,-0.00000005610000000,-0.00011200000000000,0.00481000000000000,0.00039500000000000,-0.00658000000000000,0.00005020000000000,0.00090700000000000,0.11300000000000000,0.13100000000000000
64100.00000000000000000,-0.00005630000000000,-0.00005570000000000,-0.00005590000000000,0.00000000164000000,0.00000071300000000,0.00005610000000000,0.00009720000000000,0.00000003040000000,-0.00011200000000000,0.00485000000000000,0.00039400000000000,-0.00661000000000000,0.00004570000000000,0.00088500000000000,0.11400000000000000,0.13100000000000000
64200.00000000000000000,-0.00005610000000000,-0.00005550000000000,-0.00005560000000000,-0.00000000078300000,0.00000063100000000,0.00005610000000000,0.00009720000000000,0.00000026800000000,-0.00011200000000000,0.00489000000000000,0.00039200000000000,-0.00664000000000000,0.00003690000000000,0.00083800000000000,0.11400000000000000,0.13200000000000000
64300.00000000000000000,-0.00005570000000000,-0.00005510000000000,-0.00005520000000000,-0.00000000405000000,0.00000052200000000,0.00005610000000000,0.00009720000000000,0.00000066300000000,-0.00011200000000000,0.00493000000000000,0.00038800000000000,-0.00667000000000000,0.00002480000000000,0.00077600000000000,0.11400000000000000,0.13200000000000000
64400.00000000000000000,-0.00005530000000000,-0.00005470000000000,-0.00005480000000000,-0.00000000764000000,0.00000039900000000,0.00005610000000000,0.00009720000000000,0.00000110000000000,-0.00011100000000000,0.00496000000000000,0.00038400000000000,-0.00669000000000000,0.00001080000000000,0.00070400000000000,0.11500000000000000,0.13200000000000000
64500.00000000000000000,-0.00005480000000000,-0.00005420000000000,-0.00005430000000000,-0.00000001150000000,0.00000026200000000,0.00005620000000000,0.00009730000000000,0.00000161000000000,-0.00011100000000000,0.00500000000000000,0.00038000000000000,-0.00671000000000000,-0.00000442000000000,0.00062500000000000,0.11500000000000000,0.13300000000000000
64600.00000000000000000,-0.00005440000000000,-0.00005380000000000,-0.00005380000000000,-0.00000001540000000,0.00000013000000000,0.00005620000000000,0.00009730000000000,0.00000210000000000,-0.00011000000000000,0.00504000000000000,0.00037600000000000,-0.00674000000000000,-0.00001950000000000,0.00054900000000000,0.11500000000000000,0.13300000000000000
64700.00000000000000000,-0.00005400000000000,-0.00005340000000000,-0.00005340000000000,-0.00000001900000000,0.00000000552000000,0.00005620000000000,0.00009730000000000,0.00000248000000000,-0.00011000000000000,0.00507000000000000,0.00037200000000000,-0.00676000000000000,-0.00003380000000000,0.00047700000000000,0.11600000000000000,0.13400000000000000
64800.00000000000000000,-0.00005370000000000,-0.00005310000000000,-0.00005300000000000,-0.00000002190000000,-0.00000010100000000,0.00005620000000000,0.00009740000000000,0.00000286000000000,-0.00011000000000000,0.00511000000000000,0.00036800000000000,-0.00679000000000000,-0.00004600000000000,0.00041600000000000,0.11600000000000000,0.13400000000000000
64900.00000000000000000,-0.00005350000000000,-0.00005280000000000,-0.00005270000000000,-0.00000002410000000,-0.00000018000000000,0.00005620000000000,0.00009740000000000,0.00000315000000000,-0.00010900000000000,0.00515000000000000,0.00036600000000000,-0.00682000000000000,-0.00005510000000000,0.00037100000000000,0.11600000000000000,0.13500000000000000
65000.00000000000000000,-0.00005330000000000,-0.00005270000000000,-0.00005260000000000,-0.00000002560000000,-0.00000023200000000,0.00005630000000000,0.00009740000000000,0.00000330000000000,-0.00010900000000000,0.00519000000000000,0.00036500000000000,-0.00685000000000000,-0.00006090000000000,0.00034200000000000,0.11700000000000000,0.13500000000000000
65100.00000000000000000,-0.00005330000000000,-0.00005270000000000,-0.00005250000000000,-0.00000002570000000,-0.00000024100000000,0.00005630000000000,0.00009750000000000,0.00000335000000000,-0.00010900000000000,0.00523000000000000,0.00036500000000000,-0.00689000000000000,-0.00006210000000000,0.00033700000000000,0.11700000000000000,0.13500000000000000
65200.00000000000000000,-0.00005350000000000,-0.00005280000000000,-0.00005270000000000,-0.00000002500000000,-0.00000022600000000,0.00005630000000000,0.00009750000000000,0.00000322000000000,-0.00010900000000000,0.00527000000000000,0.00036600000000000,-0.00693000000000000,-0.00005990000000000,0.00034800000000000,0.11700000000000000,0.13600000000000000
65300.00000000000000000,-0.00005370000000000,-0.00005310000000000,-0.00005290000000000,-0.00000002350000000,-0.00000017600000000,0.00005630000000000,0.00009750000000000,0.00000298000000000,-0.00011000000000000,0.00531000000000000,0.00036800000000000,-0.00698000000000000,-0.00005380000000000,0.00037900000000000,0.11800000000000000,0.13600000000000000
65400.00000000000000000,-0.00005410000000000,-0.00005340000000000,-0.00005330000000000,-0.00000002090000000,-0.00000008600000000,0.00005630000000000,0.00009750000000000,0.00000262000000000,-0.00011000000000000,0.00535000000000000,0.00037100000000000,-0.00703000000000000,-0.00004320000000000,0.00043300000000000,0.11800000000000000,0.13600000000000000
65500.00000000000000000,-0.00005460000000000,-0.00005390000000000,-0.00005380000000000,-0.00000001760000000,0.00000001870000000,0.00005630000000000,0.00009760000000000,0.00000213000000000,-0.00011100000000000,0.00539000000000000,0.00037500000000000,-0.00709000000000000,-0.00003020000000000,0.00049600000000000,0.11800000000000000,0.13700000000000000
65600.00000000000000000,-0.00005510000000000,-0.00005440000000000,-0.00005430000000000,-0.00000001410000000,0.00000014600000000,0.00005630000000000,0.00009760000000000,0.00000165000000000,-0.00011100000000000,0.00542000000000000,0.00038000000000000,-0.00714000000000000,-0.00001510000000000,0.00057200000000000,0.11900000000000000,0.13700000000000000
65700.00000000000000000,-0.00005560000000000,-0.00005490000000000,-0.00005490000000000,-0.00000001030000000,0.00000027400000000,0.00005640000000000,0.00009760000000000,0.00000114000000000,-0.00011200000000000,0.00546000000000000,0.00038500000000000,-0.00720000000000000,0.00000060300000000,0.00064900000000000,0.11900000000000000,0.13800000000000000
65800.00000000000000000,-0.00005610000000000,-0.00005550000000000,-0.00005550000000000,-0.00000000667000000,0.00000039600000000,0.00005640000000000,0.00009760000000000,0.00000058200000000,-0.00011200000000000,0.00550000000000000,0.00038900000000000,-0.00726000000000000,0.00001580000000000,0.00072200000000000,0.11900000000000000,0.13800000000000000
65900.00000000000000000,-0.00005660000000000,-0.00005590000000000,-0.00005590000000000,-0.00000000361000000,0.00000051300000000,0.00005640000000000,0.00009770000000000,0.00000012600000000,-0.00011300000000000,0.00554000000000000,0.00039400000000000,-0.00731000000000000,0.00002980000000000,0.00079200000000000,0.12000000000000000,0.13800000000000000
66000.00000000000000000,-0.00005700000000000,-0.00005630000000000,-0.00005640000000000,-0.00000000100000000,0.00000060000000000,0.00005640000000000,0.00009770000000000,-0.00000028000000000,-0.00011300000000000,0.00558000000000000,0.00039800000000000,-0.00736000000000000,0.00004100000000000,0.00084400000000000,0.12000000000000000,0.13900000000000000
66100.00000000000000000,-0.00005730000000000,-0.00005660000000000,-0.00005660000000000,0.00000000074700000,0.00000066500000000,0.00005640000000000,0.00009770000000000,-0.00000052600000000,-0.00011300000000000,0.00562000000000000,0.00040000000000000,-0.00741000000000000,0.00004890000000000,0.00088300000000000,0.12000000000000000,0.13900000000000000
66200.00000000000000000,-0.00005740000000000,-0.00005670000000000,-0.00005670000000000,0.00000000165000000,0.00000069200000000,0.00005640000000000,0.00009780000000000,-0.00000062600000000,-0.00011300000000000,0.00566000000000000,0.00040100000000000,-0.00746000000000000,0.00005270000000000,0.00090000000000000,0.12100000000000000,0.13900000000000000
66300.00000000000000000,-0.00005750000000000,-0.00005670000000000,-0.00005680000000000,0.00000000136000000,0.00000068200000000,0.00005640000000000,0.00009780000000000,-0.00000066500000000,-0.00011400000000000,0.00570000000000000,0.00040100000000000,-0.00750000000000000,0.00005220000000000,0.00089500000000000,0.12100000000000000,0.14000000000000000
66400.00000000000000000,-0.00005740000000000,-0.00005670000000000,-0.00005670000000000,0.00000000020900000,0.00000065000000000,0.00005650000000000,0.00009780000000000,-0.00000055400000000,-0.00011300000000000,0.00574000000000000,0.00040000000000000,-0.00754000000000000,0.00004820000000000,0.00087700000000000,0.12100000000000000,0.14000000000000000
66500.00000000000000000,-0.00005720000000000,-0.00005650000000000,-0.00005650000000000,-0.00000000182000000,0.00000057900000000,0.00005650000000000,0.00009780000000000,-0.00000034600000000,-0.00011300000000000,0.00579000000000000,0.00039800000000000,-0.00757000000000000,0.00003980000000000,0.00083600000000000,0.12200000000000000,0.14100000000000000
66600.00000000000000000,-0.00005690000000000,-0.00005620000000000,-0.00005610000000000,-0.00000000483000000,0.00000047700000000,0.00005650000000000,0.00009780000000000,-0.00000002280000000,-0.00011300000000000,0.00583000000000000,0.00039500000000000,-0.00760000000000000,0.00002780000000000,0.00077800000000000,0.12200000000000000,0.14100000000000000
66700.00000000000000000,-0.00005650000000000,-0.00005580000000000,-0.00005570000000000,-0.00000000804000000,0.00000036200000000,0.00005650000000000,0.00009790000000000,0.00000043100000000,-0.00011300000000000,0.00586000000000000,0.00039100000000000,-0.00763000000000000,0.00001380000000000,0.00071100000000000,0.12200000000000000,0.14100000000000000
66800.00000000000000000,-0.00005610000000000,-0.00005540000000000,-0.00005520000000000,-0.00000001140000000,0.00000023400000000,0.00005650000000000,0.00009790000000000,0.00000088200000000,-0.00011200000000000,0.00591000000000000,0.00038700000000000,-0.00765000000000000,-0.00000154000000000,0.00063700000000000,0.12300000000000000,0.14200000000000000
66900.00000000000000000,-0.00005570000000000,-0.00005500000000000,-0.00005480000000000,-0.00000001520000000,0.00000010800000000,0.00005650000000000,0.00009790000000000,0.00000132000000000,-0.00011200000000000,0.00595000000000000,0.00038300000000000,-0.00768000000000000,-0.00001720000000000,0.00056500000000000,0.12300000000000000,0.14200000000000000
67000.00000000000000000,-0.00005530000000000,-0.00005450000000000,-0.00005430000000000,-0.00000001850000000,-0.00000001190000000,0.00005660000000000,0.00009800000000000,0.00000175000000000,-0.00011100000000000,0.00599000000000000,0.00038000000000000,-0.00771000000000000,-0.00003190000000000,0.00049600000000000,0.12300000000000000,0.14300000000000000
67100.00000000000000000,-0.00005500000000000,-0.00005430000000000,-0.00005400000000000,-0.00000002110000000,-0.00000011800000000,0.00005660000000000,0.00009800000000000,0.00000208000000000,-0.00011100000000000,0.00603000000000000,0.00037700000000000,-0.00774000000000000,-0.00004470000000000,0.00043500000000000,0.12400000000000000,0.14300000000000000
67200.00000000000000000,-0.00005480000000000,-0.00005400000000000,-0.00005370000000000,-0.00000002340000000,-0.00000019000000000,0.00005660000000000,0.00009800000000000,0.00000235000000000,-0.00011100000000000,0.00607000000000000,0.00037400000000000,-0.00777000000000000,-0.00005410000000000,0.00039400000000000,0.12400000000000000,0.14300000000000000
67300.00000000000000000,-0.00005460000000000,-0.00005390000000000,-0.00005360000000000,-0.00000002460000000,-0.00000024100000000,0.00005660000000000,0.00009810000000000,0.00000251000000000,-0.00011100000000000,0.00612000000000000,0.00037300000000000,-0.00781000000000000,-0.00005990000000000,0.00036600000000000,0.12400000000000000,0.14400000000000000
67400.00000000000000000,-0.00005460000000000,-0.00005390000000000,-0.00005360000000000,-0.00000002470000000,-0.00000025000000000,0.00005660000000000,0.00009810000000000,0.00000252000000000,-0.00011100000000000,0.00616000000000000,0.00037300000000000,-0.00785000000000000,-0.00006110000000000,0.00036100000000000,0.12500000000000000,0.14400000000000000
67500.00000000000000000,-0.00005480000000000,-0.00005400000000000,-0.00005370000000000,-0.00000002400000000,-0.00000022900000000,0.00005660000000000,0.00009810000000000,0.00000242000000000,-0.00011100000000000,0.00620000000000000,0.00037400000000000,-0.00790000000000000,-0.00005820000000000,0.00037500000000000,0.12500000000000000,0.14500000000000000
67600.00000000000000000,-0.00005500000000000,-0.00005430000000000,-0.00005400000000000,-0.00000002250000000,-0.00000018000000000,0.00005670000000000,0.00009810000000000,0.00000217000000000,-0.00011100000000000,0.00624000000000000,0.00037600000000000,-0.00795000000000000,-0.00005150000000000,0.00040500000000000,0.12500000000000000,0.14500000000000000
67700.00000000000000000,-0.00005540000000000,-0.00005470000000000,-0.00005440000000000,-0.00000002000000000,-0.00000008970000000,0.00005670000000000,0.00009820000000000,0.00000177000000000,-0.00011200000000000,0.00628000000000000,0.00038000000000000,-0.00801000000000000,-0.00004030000000000,0.00045900000000000,0.12600000000000000,0.14500000000000000
67800.00000000000000000,-0.00005590000000000,-0.00005510000000000,-0.00005480000000000,-0.00000001680000000,0.00000001370000000,0.00005670000000000,0.00009820000000000,0.00000136000000000,-0.00011200000000000,0.00632000000000000,0.00038400000000000,-0.00806000000000000,-0.00002650000000000,0.00052100000000000,0.12600000000000000,0.14600000000000000
67900.00000000000000000,-0.00005640000000000,-0.00005560000000000,-0.00005530000000000,-0.00000001360000000,0.00000013500000000,0.00005670000000000,0.00009820000000000,0.00000086000000000,-0.00011300000000000,0.00637000000000000,0.00038800000000000,-0.00812000000000000,-0.00001100000000000,0.00059400000000000,0.12600000000000000,0.14600000000000000
68000.00000000000000000,-0.00005690000000000,-0.00005610000000000,-0.00005590000000000,-0.00000001030000000,0.00000025700000000,0.00005670000000000,0.00009820000000000,0.00000036300000000,-0.00011300000000000,0.00641000000000000,0.00039300000000000,-0.00818000000000000,0.00000487000000000,0.00066600000000000,0.12700000000000000,0.14700000000000000
68100.00000000000000000,-0.00005740000000000,-0.00005660000000000,-0.00005640000000000,-0.00000000682000000,0.00000037300000000,0.00005670000000000,0.00009830000000000,-0.00000012300000000,-0.00011400000000000,0.00645000000000000,0.00039700000000000,-0.00824000000000000,0.00002020000000000,0.00073500000000000,0.12700000000000000,0.14700000000000000
68200.00000000000000000,-0.00005780000000000,-0.00005700000000000,-0.00005680000000000,-0.00000000423000000,0.00000048200000000,0.00005670000000000,0.00009830000000000,-0.00000058400000000,-0.00011400000000000,0.00649000000000000,0.00040100000000000,-0.00829000000000000,0.00003410000000000,0.00079900000000000,0.12700000000000000,0.14700000000000000
68300.00000000000000000,-0.00005820000000000,-0.00005740000000000,-0.00005720000000000,-0.00000000197000000,0.00000055900000000,0.00005680000000000,0.00009830000000000,-0.00000093500000000,-0.00011400000000000,0.00654000000000000,0.00040500000000000,-0.00835000000000000,0.00004480000000000,0.00084500000000000,0.12800000000000000,0.14800000000000000
68400.00000000000000000,-0.00005840000000000,-0.00005760000000000,-0.00005740000000000,-0.00000000035900000,0.00000061500000000,0.00005680000000000,0.00009830000000000,-0.00000114000000000,-0.00011500000000000,0.00658000000000000,0.00040700000000000,-0.00840000000000000,0.00005230000000000,0.00087900000000000,0.12800000000000000,0.14800000000000000
68500.00000000000000000,-0.00005850000000000,-0.00005770000000000,-0.00005760000000000,0.00000000005270000,0.00000063500000000,0.00005680000000000,0.00009840000000000,-0.00000124000000000,-0.00011500000000000,0.00662000000000000,0.00040800000000000,-0.00845000000000000,0.00005520000000000,0.00089100000000000,0.12800000000000000,0.14800000000000000
68600.00000000000000000,-0.00005850000000000,-0.00005770000000000,-0.00005750000000000,-0.00000000042300000,0.00000062200000000,0.00005680000000000,0.00009840000000000,-0.00000123000000000,-0.00011500000000000,0.00667000000000000,0.00040800000000000,-0.00849000000000000,0.00005390000000000,0.00088400000000000,0.12900000000000000,0.14900000000000000
68700.00000000000000000,-0.00005850000000000,-0.00005760000000000,-0.00005740000000000,-0.00000000156000000,0.00000058100000000,0.00005680000000000,0.00009840000000000,-0.00000112000000000,-0.00011500000000000,0.00671000000000000,0.00040700000000000,-0.00853000000000000,0.00004870000000000,0.00086200000000000,0.12900000000000000,0.14900000000000000
68800.00000000000000000,-0.00005820000000000,-0.00005740000000000,-0.00005720000000000,-0.00000000373000000,0.00000050400000000,0.00005680000000000,0.00009850000000000,-0.00000088800000000,-0.00011500000000000,0.00675000000000000,0.00040400000000000,-0.00857000000000000,0.00003910000000000,0.00081700000000000,0.12900000000000000,0.15000000000000000
68900.00000000000000000,-0.00005790000000000,-0.00005710000000000,-0.00005680000000000,-0.00000000659000000,0.00000040400000000,0.00005680000000000,0.00009850000000000,-0.00000052200000000,-0.00011400000000000,0.00680000000000000,0.00040100000000000,-0.00860000000000000,0.00002610000000000,0.00076000000000000,0.13000000000000000,0.15000000000000000
69000.00000000000000000,-0.00005750000000000,-0.00005670000000000,-0.00005640000000000,-0.00000000965000000,0.00000028600000000,0.00005690000000000,0.00009850000000000,-0.00000010200000000,-0.00011400000000000,0.00684000000000000,0.00039700000000000,-0.00863000000000000,0.00001100000000000,0.00069200000000000,0.13000000000000000,0.15000000000000000
69100.00000000000000000,-0.00005710000000000,-0.00005630000000000,-0.00005600000000000,-0.00000001300000000,0.00000016100000000,0.00005690000000000,0.00009850000000000,0.00000034400000000,-0.00011300000000000,0.00689000000000000,0.00039300000000000,-0.00866000000000000,-0.00000514000000000,0.00062000000000000,0.13000000000000000,0.15100000000000000
69200.00000000000000000,-0.00005680000000000,-0.00005590000000000,-0.00005550000000000,-0.00000001640000000,0.00000004440000000,0.00005690000000000,0.00009860000000000,0.00000076200000000,-0.00011300000000000,0.00693000000000000,0.00039000000000000,-0.00869000000000000,-0.00002080000000000,0.00055300000000000,0.13100000000000000,0.15100000000000000
69300.00000000000000000,-0.00005640000000000,-0.00005560000000000,-0.00005520000000000,-0.00000001920000000,-0.00000007050000000,0.00005690000000000,0.00009860000000000,0.00000112000000000,-0.00011300000000000,0.00698000000000000,0.00038600000000000,-0.00873000000000000,-0.00003550000000000,0.00048700000000000,0.13100000000000000,0.15200000000000000
69400.00000000000000000,-0.00005610000000000,-0.00005530000000000,-0.00005480000000000,-0.00000002160000000,-0.00000015900000000,0.00005690000000000,0.00009860000000000,0.00000145000000000,-0.00011200000000000,0.00702000000000000,0.00038300000000000,-0.00876000000000000,-0.00004730000000000,0.00043700000000000,0.13100000000000000,0.15200000000000000
69500.00000000000000000,-0.00005600000000000,-0.00005510000000000,-0.00005460000000000,-0.00000002340000000,-0.00000022000000000,0.00005700000000000,0.00009870000000000,0.00000167000000000,-0.00011200000000000,0.00707000000000000,0.00038200000000000,-0.00880000000000000,-0.00005550000000000,0.00040200000000000,0.13200000000000000,0.15200000000000000
69600.00000000000000000,-0.00005590000000000,-0.00005500000000000,-0.00005460000000000,-0.00000002400000000,-0.00000025300000000,0.00005700000000000,0.00009870000000000,0.00000174000000000,-0.00011200000000000,0.00711000000000000,0.00038100000000000,-0.00884000000000000,-0.00005950000000000,0.00038400000000000,0.13200000000000000,0.15300000000000000
69700.00000000000000000,-0.00005590000000000,-0.00005510000000000,-0.00005460000000000,-0.00000002380000000,-0.00000024500000000,0.00005700000000000,0.00009870000000000,0.00000172000000000,-0.00011200000000000,0.00716000000000000,0.00038100000000000,-0.00889000000000000,-0.00005870000000000,0.00039000000000000,0.13200000000000000,0.15300000000000000
69800.00000000000000000,-0.00005610000000000,-0.00005530000000000,-0.00005480000000000,-0.00000002270000000,-0.00000021800000000,0.00005700000000000,0.00009870000000000,0.00000154000000000,-0.00011200000000000,0.00720000000000000,0.00038300000000000,-0.00894000000000000,-0.00005440000000000,0.00040700000000000,0.13300000000000000,0.15400000000000000
69900.00000000000000000,-0.00005650000000000,-0.00005560000000000,-0.00005510000000000,-0.00000002100000000,-0.00000015000000000,0.00005700000000000,0.00009880000000000,0.00000123000000000,-0.00011300000000000,0.00725000000000000,0.00038600000000000,-0.00900000000000000,-0.00004520000000000,0.00044800000000000,0.13300000000000000,0.15400000000000000
70000.00000000000000000,-0.00005680000000000,-0.00005590000000000,-0.00005550000000000,-0.00000001830000000,-0.00000005570000000,0.00005700000000000,0.00009880000000000,0.00000086600000000,-0.00011300000000000,0.00729000000000000,0.00038900000000000,-0.00906000000000000,-0.00003230000000000,0.00050400000000000,0.13300000000000000,0.15400000000000000
70100.00000000000000000,-0.00005730000000000,-0.00005640000000000,-0.00005600000000000,-0.00000001540000000,0.00000004920000000,0.00005700000000000,0.00009880000000000,0.00000039900000000,-0.00011400000000000,0.00734000000000000,0.00039300000000000,-0.00911000000000000,-0.00001750000000000,0.00056600000000000,0.13400000000000000,0.15500000000000000
70200.00000000000000000,-0.00005780000000000,-0.00005690000000000,-0.00005650000000000,-0.00000001250000000,0.00000017200000000,0.00005710000000000,0.00009880000000000,-0.00000006930000000,-0.00011400000000000,0.00738000000000000,0.00039800000000000,-0.00918000000000000,-0.00000116000000000,0.00063900000000000,0.13400000000000000,0.15500000000000000
70300.00000000000000000,-0.00005830000000000,-0.00005730000000000,-0.00005700000000000,-0.00000000916000000,0.00000028400000000,0.00005710000000000,0.00009890000000000,-0.00000054000000000,-0.00011500000000000,0.00743000000000000,0.00040200000000000,-0.00924000000000000,0.00001490000000000,0.00070500000000000,0.13400000000000000,0.15500000000000000
70400.00000000000000000,-0.00005880000000000,-0.00005780000000000,-0.00005750000000000,-0.00000000638000000,0.00000039500000000,0.00005710000000000,0.00009890000000000,-0.00000103000000000,-0.00011500000000000,0.00747000000000000,0.00040600000000000,-0.00930000000000000,0.00003010000000000,0.00077000000000000,0.13500000000000000,0.15600000000000000
70500.00000000000000000,-0.00005910000000000,-0.00005820000000000,-0.00005790000000000,-0.00000000415000000,0.00000048600000000,0.00005710000000000,0.00009890000000000,-0.00000141000000000,-0.00011600000000000,0.00752000000000000,0.00041000000000000,-0.00936000000000000,0.00004280000000000,0.00082400000000000,0.13500000000000000,0.15600000000000000
70600.00000000000000000,-0.00005940000000000,-0.00005850000000000,-0.00005820000000000,-0.00000000223000000,0.00000054900000000,0.00005710000000000,0.00009890000000000,-0.00000166000000000,-0.00011600000000000,0.00756000000000000,0.00041200000000000,-0.00941000000000000,0.00005200000000000,0.00086200000000000,0.13500000000000000,0.15700000000000000
70700.00000000000000000,-0.00005960000000000,-0.00005860000000000,-0.00005830000000000,-0.00000000139000000,0.00000058300000000,0.00005710000000000,0.00009900000000000,-0.00000182000000000,-0.00011600000000000,0.00761000000000000,0.00041400000000000,-0.00946000000000000,0.00005700000000000,0.00088200000000000,0.13600000000000000,0.15700000000000000
70800.00000000000000000,-0.00005960000000000,-0.00005860000000000,-0.00005830000000000,-0.00000000161000000,0.00000058100000000,0.00005710000000000,0.00009900000000000,-0.00000182000000000,-0.00011600000000000,0.00765000000000000,0.00041400000000000,-0.00951000000000000,0.00005720000000000,0.00088100000000000,0.13600000000000000,0.15700000000000000
70900.00000000000000000,-0.00005960000000000,-0.00005860000000000,-0.00005830000000000,-0.00000000246000000,0.00000055500000000,0.00005720000000000,0.00009900000000000,-0.00000177000000000,-0.00011600000000000,0.00770000000000000,0.00041400000000000,-0.00956000000000000,0.00005350000000000,0.00086700000000000,0.13600000000000000,0.15800000000000000
71000.00000000000000000,-0.00005950000000000,-0.00005850000000000,-0.00005810000000000,-0.00000000416000000,0.00000049200000000,0.00005720000000000,0.00009910000000000,-0.00000161000000000,-0.00011600000000000,0.00775000000000000,0.00041200000000000,-0.00960000000000000,0.00004520000000000,0.00083100000000000,0.13700000000000000,0.15800000000000000
71100.00000000000000000,-0.00005920000000000,-0.00005820000000000,-0.00005780000000000,-0.00000000664000000,0.00000040000000000,0.00005720000000000,0.00009910000000000,-0.00000128000000000,-0.00011600000000000,0.00780000000000000,0.00040900000000000,-0.00964000000000000,0.00003280000000000,0.00077800000000000,0.13700000000000000,0.15900000000000000
71200.00000000000000000,-0.00005880000000000,-0.00005780000000000,-0.00005740000000000,-0.00000000944000000,0.00000029400000000,0.00005720000000000,0.00009910000000000,-0.00000088800000000,-0.00011500000000000,0.00784000000000000,0.00040500000000000,-0.00967000000000000,0.00001810000000000,0.00071800000000000,0.13700000000000000,0.15900000000000000
71300.00000000000000000,-0.00005840000000000,-0.00005740000000000,-0.00005700000000000,-0.00000001250000000,0.00000017500000000,0.00005720000000000,0.00009910000000000,-0.00000046900000000,-0.00011500000000000,0.00789000000000000,0.00040200000000000,-0.00970000000000000,0.00000173000000000,0.00064900000000000,0.13800000000000000,0.15900000000000000
71400.00000000000000000,-0.00005800000000000,-0.00005710000000000,-0.00005650000000000,-0.00000001560000000,0.00000005950000000,0.00005720000000000,0.00009920000000000,-0.00000004310000000,-0.00011500000000000,0.00794000000000000,0.00039800000000000,-0.00974000000000000,-0.00001450000000000,0.00058300000000000,0.13800000000000000,0.16000000000000000
71500.00000000000000000,-0.00005770000000000,-0.00005670000000000,-0.00005620000000000,-0.00000001840000000,-0.00000005240000000,0.00005730000000000,0.00009920000000000,0.00000029400000000,-0.00011400000000000,0.00799000000000000,0.00039500000000000,-0.00977000000000000,-0.00002990000000000,0.00051900000000000,0.13800000000000000,0.16000000000000000
71600.00000000000000000,-0.00005740000000000,-0.00005640000000000,-0.00005590000000000,-0.00000002070000000,-0.00000014400000000,0.00005730000000000,0.00009920000000000,0.00000062600000000,-0.00011400000000000,0.00803000000000000,0.00039200000000000,-0.00981000000000000,-0.00004280000000000,0.00046700000000000,0.13900000000000000,0.16100000000000000
71700.00000000000000000,-0.00005720000000000,-0.00005620000000000,-0.00005560000000000,-0.00000002240000000,-0.00000021000000000,0.00005730000000000,0.00009920000000000,0.00000087500000000,-0.00011400000000000,0.00809000000000000,0.00039000000000000,-0.00986000000000000,-0.00005220000000000,0.00042900000000000,0.13900000000000000,0.16100000000000000
71800.00000000000000000,-0.00005720000000000,-0.00005620000000000,-0.00005550000000000,-0.00000002350000000,-0.00000025100000000,0.00005730000000000,0.00009930000000000,0.00000096600000000,-0.00011400000000000,0.00813000000000000,0.00038900000000000,-0.00990000000000000,-0.00005750000000000,0.00040700000000000,0.13900000000000000,0.16100000000000000
71900.00000000000000000,-0.00005720000000000,-0.00005620000000000,-0.00005550000000000,-0.00000002340000000,-0.00000025200000000,0.00005730000000000,0.00009930000000000,0.00000098100000000,-0.00011400000000000,0.00818000000000000,0.00038900000000000,-0.00995000000000000,-0.00005780000000000,0.00040700000000000,0.14000000000000000,0.16200000000000000
72000.00000000000000000,-0.00005730000000000,-0.00005630000000000,-0.00005570000000000,-0.00000002260000000,-0.00000023000000000,0.00005730000000000,0.00009930000000000,0.00000082900000000,-0.00011400000000000,0.00823000000000000,0.00039000000000000,-0.01000000000000000,-0.00005420000000000,0.00042100000000000,0.14000000000000000,0.16200000000000000
72100.00000000000000000,-0.00005760000000000,-0.00005660000000000,-0.00005600000000000,-0.00000002120000000,-0.00000017400000000,0.00005740000000000,0.00009940000000000,0.00000057500000000,-0.00011400000000000,0.00828000000000000,0.00039300000000000,-0.01010000000000000,-0.00004610000000000,0.00045500000000000,0.14000000000000000,0.16300000000000000
72200.00000000000000000,-0.00005800000000000,-0.00005690000000000,-0.00005630000000000,-0.00000001880000000,-0.00000008910000000,0.00005740000000000,0.00009940000000000,0.00000023300000000,-0.00011500000000000,0.00833000000000000,0.00039600000000000,-0.01010000000000000,-0.00003380000000000,0.00050500000000000,0.14100000000000000,0.16300000000000000
72300.00000000000000000,-0.00005840000000000,-0.00005740000000000,-0.00005680000000000,-0.00000001610000000,0.00000001190000000,0.00005740000000000,0.00009940000000000,-0.00000021200000000,-0.00011500000000000,0.00837000000000000,0.00040000000000000,-0.01020000000000000,-0.00001890000000000,0.00056500000000000,0.14100000000000000,0.16300000000000000
72400.00000000000000000,-0.00005890000000000,-0.00005780000000000,-0.00005730000000000,-0.00000001350000000,0.00000012700000000,0.00005740000000000,0.00009940000000000,-0.00000065000000000,-0.00011500000000000,0.00842000000000000,0.00040400000000000,-0.01020000000000000,-0.00000244000000000,0.00063200000000000,0.14100000000000000,0.16400000000000000
72500.00000000000000000,-0.00005940000000000,-0.00005830000000000,-0.00005780000000000,-0.00000001040000000,0.00000023800000000,0.00005740000000000,0.00009950000000000,-0.00000113000000000,-0.00011600000000000,0.00847000000000000,0.00040800000000000,-0.01030000000000000,0.00001410000000000,0.00069700000000000,0.14200000000000000,0.16400000000000000
72600.00000000000000000,-0.00005980000000000,-0.00005870000000000,-0.00005820000000000,-0.00000000773000000,0.00000034500000000,0.00005740000000000,0.00009950000000000,-0.00000158000000000,-0.00011600000000000,0.00851000000000000,0.00041200000000000,-0.01040000000000000,0.00002970000000000,0.00076000000000000,0.14200000000000000,0.16400000000000000
72700.00000000000000000,-0.00006020000000000,-0.00005910000000000,-0.00005860000000000,-0.00000000562000000,0.00000043700000000,0.00005740000000000,0.00009950000000000,-0.00000196000000000,-0.00011700000000000,0.00856000000000000,0.00041600000000000,-0.01040000000000000,0.00004320000000000,0.00081400000000000,0.14200000000000000,0.16500000000000000
72800.00000000000000000,-0.00006050000000000,-0.00005940000000000,-0.00005890000000000,-0.00000000380000000,0.00000050100000000,0.00005750000000000,0.00009950000000000,-0.00000225000000000,-0.00011700000000000,0.00861000000000000,0.00041800000000000,-0.01050000000000000,0.00005310000000000,0.00085200000000000,0.14300000000000000,0.16500000000000000
72900.00000000000000000,-0.00006060000000000,-0.00005960000000000,-0.00005910000000000,-0.00000000291000000,0.00000053900000000,0.00005750000000000,0.00009960000000000,-0.00000238000000000,-0.00011700000000000,0.00866000000000000,0.00042000000000000,-0.01050000000000000,0.00005880000000000,0.00087400000000000,0.14300000000000000,0.16600000000000000
73000.00000000000000000,-0.00006070000000000,-0.00005960000000000,-0.00005910000000000,-0.00000000300000000,0.00000054000000000,0.00005750000000000,0.00009960000000000,-0.00000241000000000,-0.00011700000000000,0.00871000000000000,0.00042000000000000,-0.01060000000000000,0.00005940000000000,0.00087600000000000,0.14300000000000000,0.16600000000000000
73100.00000000000000000,-0.00006070000000000,-0.00005960000000000,-0.00005910000000000,-0.00000000381000000,0.00000051500000000,0.00005750000000000,0.00009960000000000,-0.00000237000000000,-0.00011700000000000,0.00876000000000000,0.00042000000000000,-0.01060000000000000,0.00005590000000000,0.00086200000000000,0.14400000000000000,0.16600000000000000
73200.00000000000000000,-0.00006060000000000,-0.00005940000000000,-0.00005890000000000,-0.00000000525000000,0.00000046000000000,0.00005750000000000,0.00009960000000000,-0.00000221000000000,-0.00011700000000000,0.00881000000000000,0.00041800000000000,-0.01070000000000000,0.00004790000000000,0.00083000000000000,0.14400000000000000,0.16700000000000000
73300.00000000000000000,-0.00006030000000000,-0.00005920000000000,-0.00005860000000000,-0.00000000753000000,0.00000037200000000,0.00005750000000000,0.00009970000000000,-0.00000191000000000,-0.00011700000000000,0.00886000000000000,0.00041600000000000,-0.01070000000000000,0.00003550000000000,0.00078000000000000,0.14400000000000000,0.16700000000000000
73400.00000000000000000,-0.00006000000000000,-0.00005880000000000,-0.00005820000000000,-0.00000001020000000,0.00000027000000000,0.00005750000000000,0.00009970000000000,-0.00000154000000000,-0.00011700000000000,0.00891000000000000,0.00041200000000000,-0.01080000000000000,0.00002050000000000,0.00072200000000000,0.14500000000000000,0.16800000000000000
73500.00000000000000000,-0.00005960000000000,-0.00005850000000000,-0.00005780000000000,-0.00000001290000000,0.00000015700000000,0.00005760000000000,0.00009970000000000,-0.00000113000000000,-0.00011600000000000,0.00896000000000000,0.00040900000000000,-0.01080000000000000,0.00000411000000000,0.00065700000000000,0.14500000000000000,0.16800000000000000
73600.00000000000000000,-0.00005920000000000,-0.00005810000000000,-0.00005740000000000,-0.00000001580000000,0.00000004520000000,0.00005760000000000,0.00009980000000000,-0.00000074900000000,-0.00011600000000000,0.00901000000000000,0.00040500000000000,-0.01080000000000000,-0.00001250000000000,0.00059300000000000,0.14500000000000000,0.16800000000000000
73700.00000000000000000,-0.00005890000000000,-0.00005780000000000,-0.00005710000000000,-0.00000001840000000,-0.00000006040000000,0.00005760000000000,0.00009980000000000,-0.00000040200000000,-0.00011600000000000,0.00906000000000000,0.00040200000000000,-0.01090000000000000,-0.00002810000000000,0.00053300000000000,0.14600000000000000,0.16900000000000000
73800.00000000000000000,-0.00005860000000000,-0.00005750000000000,-0.00005680000000000,-0.00000002050000000,-0.00000015000000000,0.00005760000000000,0.00009980000000000,-0.00000009020000000,-0.00011500000000000,0.00912000000000000,0.00039900000000000,-0.01090000000000000,-0.00004120000000000,0.00048200000000000,0.14600000000000000,0.16900000000000000
73900.00000000000000000,-0.00005850000000000,-0.00005730000000000,-0.00005660000000000,-0.00000002230000000,-0.00000021500000000,0.00005760000000000,0.00009980000000000,0.00000013600000000,-0.00011500000000000,0.00917000000000000,0.00039700000000000,-0.01100000000000000,-0.00005090000000000,0.00044500000000000,0.14600000000000000,0.17000000000000000
74000.00000000000000000,-0.00005840000000000,-0.00005720000000000,-0.00005650000000000,-0.00000002310000000,-0.00000025000000000,0.00005770000000000,0.00009990000000000,0.00000024300000000,-0.00011500000000000,0.00922000000000000,0.00039700000000000,-0.01100000000000000,-0.00005610000000000,0.00042600000000000,0.14700000000000000,0.17000000000000000
74100.00000000000000000,-0.00005840000000000,-0.00005730000000000,-0.00005650000000000,-0.00000002300000000,-0.00000025200000000,0.00005770000000000,0.00009990000000000,0.00000022900000000,-0.00011500000000000,0.00927000000000000,0.00039700000000000,-0.01110000000000000,-0.00005630000000000,0.00042600000000000,0.14700000000000000,0.17000000000000000
74200.00000000000000000,-0.00005860000000000,-0.00005740000000000,-0.00005660000000000,-0.00000002230000000,-0.00000022800000000,0.00005770000000000,0.00009990000000000,0.00000007790000000,-0.00011500000000000,0.00932000000000000,0.00039800000000000,-0.01110000000000000,-0.00005240000000000,0.00044100000000000,0.14700000000000000,0.17100000000000000
74300.00000000000000000,-0.00005880000000000,-0.00005770000000000,-0.00005690000000000,-0.00000002090000000,-0.00000017300000000,0.00005770000000000,0.00010000000000000,-0.00000016600000000,-0.00011600000000000,0.00938000000000000,0.00040000000000000,-0.01120000000000000,-0.00004380000000000,0.00047400000000000,0.14800000000000000,0.17100000000000000
74400.00000000000000000,-0.00005920000000000,-0.00005800000000000,-0.00005730000000000,-0.00000001860000000,-0.00000008830000000,0.00005770000000000,0.00010000000000000,-0.00000052100000000,-0.00011600000000000,0.00942000000000000,0.00040400000000000,-0.01130000000000000,-0.00003090000000000,0.00052300000000000,0.14800000000000000,0.17100000000000000
74500.00000000000000000,-0.00005960000000000,-0.00005850000000000,-0.00005770000000000,-0.00000001620000000,0.00000001200000000,0.00005770000000000,0.00010000000000000,-0.00000093400000000,-0.00011600000000000,0.00947000000000000,0.00040700000000000,-0.01130000000000000,-0.00001540000000000,0.00058200000000000,0.14800000000000000,0.17200000000000000
74600.00000000000000000,-0.00006010000000000,-0.00005890000000000,-0.00005820000000000,-0.00000001370000000,0.00000012300000000,0.00005770000000000,0.00010000000000000,-0.00000137000000000,-0.00011700000000000,0.00952000000000000,0.00041100000000000,-0.01140000000000000,0.00000142000000000,0.00064700000000000,0.14900000000000000,0.17200000000000000
74700.00000000000000000,-0.00006060000000000,-0.00005940000000000,-0.00005870000000000,-0.00000001080000000,0.00000023100000000,0.00005780000000000,0.00010000000000000,-0.00000184000000000,-0.00011700000000000,0.00958000000000000,0.00041600000000000,-0.01140000000000000,0.00001840000000000,0.00071000000000000,0.14900000000000000,0.17300000000000000
74800.00000000000000000,-0.00006100000000000,-0.00005980000000000,-0.00005910000000000,-0.00000000843000000,0.00000033200000000,0.00005780000000000,0.00010000000000000,-0.00000226000000000,-0.00011800000000000,0.00962000000000000,0.00042000000000000,-0.01150000000000000,0.00003400000000000,0.00076900000000000,0.14900000000000000,0.17300000000000000
74900.00000000000000000,-0.00006140000000000,-0.00006010000000000,-0.00005950000000000,-0.00000000649000000,0.00000041700000000,0.00005780000000000,0.00010000000000000,-0.00000262000000000,-0.00011800000000000,0.00968000000000000,0.00042300000000000,-0.01160000000000000,0.00004720000000000,0.00081800000000000,0.15000000000000000,0.17300000000000000
75000.00000000000000000,-0.00006160000000000,-0.00006040000000000,-0.00005970000000000,-0.00000000495000000,0.00000047600000000,0.00005780000000000,0.00010000000000000,-0.00000287000000000,-0.00011800000000000,0.00973000000000000,0.00042500000000000,-0.01160000000000000,0.00005660000000000,0.00085300000000000,0.15000000000000000,0.17400000000000000
75100.00000000000000000,-0.00006180000000000,-0.00006050000000000,-0.00005990000000000,-0.00000000430000000,0.00000050600000000,0.00005780000000000,0.00010000000000000,-0.00000298000000000,-0.00011900000000000,0.00978000000000000,0.00042600000000000,-0.01170000000000000,0.00006140000000000,0.00087100000000000,0.15000000000000000,0.17400000000000000
75200.00000000000000000,-0.00006180000000000,-0.00006060000000000,-0.00005990000000000,-0.00000000455000000,0.00000050100000000,0.00005780000000000,0.00010000000000000,-0.00000300000000000,-0.00011900000000000,0.00983000000000000,0.00042700000000000,-0.01170000000000000,0.00006110000000000,0.00086800000000000,0.15100000000000000,0.17400000000000000
75300.00000000000000000,-0.00006180000000000,-0.00006050000000000,-0.00005980000000000,-0.00000000542000000,0.00000047200000000,0.00005780000000000,0.00010000000000000,-0.00000294000000000,-0.00011900000000000,0.00989000000000000,0.00042600000000000,-0.01180000000000000,0.00005660000000000,0.00085200000000000,0.15100000000000000,0.17500000000000000
75400.00000000000000000,-0.00006160000000000,-0.00006030000000000,-0.00005960000000000,-0.00000000696000000,0.00000041000000000,0.00005790000000000,0.00010000000000000,-0.00000275000000000,-0.00011800000000000,0.00994000000000000,0.00042400000000000,-0.01180000000000000,0.00004730000000000,0.00081700000000000,0.15100000000000000,0.17500000000000000
75500.00000000000000000,-0.00006130000000000,-0.00006010000000000,-0.00005930000000000,-0.00000000924000000,0.00000032200000000,0.00005790000000000,0.00010000000000000,-0.00000244000000000,-0.00011800000000000,0.00999000000000000,0.00042100000000000,-0.01190000000000000,0.00003390000000000,0.00076700000000000,0.15200000000000000,0.17600000000000000
75600.00000000000000000,-0.00006100000000000,-0.00005970000000000,-0.00005900000000000,-0.00000001170000000,0.00000021900000000,0.00005790000000000,0.00010000000000000,-0.00000207000000000,-0.00011800000000000,0.01000000000000000,0.00041800000000000,-0.01190000000000000,0.00001810000000000,0.00070800000000000,0.15200000000000000,0.17600000000000000
75700.00000000000000000,-0.00006060000000000,-0.00005940000000000,-0.00005860000000000,-0.00000001430000000,0.00000010900000000,0.00005790000000000,0.00010000000000000,-0.00000168000000000,-0.00011800000000000,0.01010000000000000,0.00041500000000000,-0.01200000000000000,0.00000119000000000,0.00064600000000000,0.15200000000000000,0.17600000000000000
75800.00000000000000000,-0.00006030000000000,-0.00005900000000000,-0.00005820000000000,-0.00000001700000000,0.00000000227000000,0.00005790000000000,0.00010000000000000,-0.00000131000000000,-0.00011700000000000,0.01020000000000000,0.00041100000000000,-0.01200000000000000,-0.00001560000000000,0.00058500000000000,0.15300000000000000,0.17700000000000000
75900.00000000000000000,-0.00006000000000000,-0.00005870000000000,-0.00005790000000000,-0.00000001930000000,-0.00000009710000000,0.00005790000000000,0.00010000000000000,-0.00000099200000000,-0.00011700000000000,0.01020000000000000,0.00040800000000000,-0.01210000000000000,-0.00003090000000000,0.00052800000000000,0.15300000000000000,0.17700000000000000
76000.00000000000000000,-0.00005980000000000,-0.00005850000000000,-0.00005760000000000,-0.00000002110000000,-0.00000017700000000,0.00005800000000000,0.00010000000000000,-0.00000070700000000,-0.00011700000000000,0.01030000000000000,0.00040600000000000,-0.01210000000000000,-0.00004330000000000,0.00048300000000000,0.15300000000000000,0.17800000000000000
76100.00000000000000000,-0.00005960000000000,-0.00005830000000000,-0.00005740000000000,-0.00000002250000000,-0.00000023100000000,0.00005800000000000,0.00010000000000000,-0.00000052600000000,-0.00011700000000000,0.01030000000000000,0.00040400000000000,-0.01220000000000000,-0.00005180000000000,0.00045300000000000,0.15400000000000000,0.17800000000000000
76200.00000000000000000,-0.00005960000000000,-0.00005830000000000,-0.00005740000000000,-0.00000002300000000,-0.00000025400000000,0.00005800000000000,0.00010000000000000,-0.00000046200000000,-0.00011600000000000,0.01040000000000000,0.00040400000000000,-0.01220000000000000,-0.00005540000000000,0.00044000000000000,0.15400000000000000,0.17800000000000000
76300.00000000000000000,-0.00005970000000000,-0.00005840000000000,-0.00005740000000000,-0.00000002260000000,-0.00000024600000000,0.00005800000000000,0.00010000000000000,-0.00000052500000000,-0.00011700000000000,0.01040000000000000,0.00040500000000000,-0.01230000000000000,-0.00005410000000000,0.00044600000000000,0.15400000000000000,0.17900000000000000
76400.00000000000000000,-0.00005990000000000,-0.00005860000000000,-0.00005760000000000,-0.00000002180000000,-0.00000021200000000,0.00005800000000000,0.00010100000000000,-0.00000070900000000,-0.00011700000000000,0.01050000000000000,0.00040600000000000,-0.01230000000000000,-0.00004830000000000,0.00046600000000000,0.15500000000000000,0.17900000000000000
76500.00000000000000000,-0.00006020000000000,-0.00005890000000000,-0.00005790000000000,-0.00000002020000000,-0.00000014600000000,0.00005800000000000,0.00010100000000000,-0.00000099300000000,-0.00011700000000000,0.01050000000000000,0.00040900000000000,-0.01240000000000000,-0.00003770000000000,0.00050500000000000,0.15500000000000000,0.18000000000000000
76600.00000000000000000,-0.00006050000000000,-0.00005920000000000,-0.00005830000000000,-0.00000001790000000,-0.00000005680000000,0.00005810000000000,0.00010100000000000,-0.00000135000000000,-0.00011700000000000,0.01060000000000000,0.00041200000000000,-0.01250000000000000,-0.00002330000000000,0.00055700000000000,0.15500000000000000,0.18000000000000000
76700.00000000000000000,-0.00006100000000000,-0.00005960000000000,-0.00005870000000000,-0.00000001560000000,0.00000004490000000,0.00005810000000000,0.00010100000000000,-0.00000178000000000,-0.00011800000000000,0.01060000000000000,0.00041600000000000,-0.01250000000000000,-0.00000688000000000,0.00061600000000000,0.15600000000000000,0.18000000000000000
76800.00000000000000000,-0.00006140000000000,-0.00006010000000000,-0.00005920000000000,-0.00000001320000000,0.00000015200000000,0.00005810000000000,0.00010100000000000,-0.00000221000000000,-0.00011800000000000,0.01070000000000000,0.00042000000000000,-0.01260000000000000,0.00001040000000000,0.00067900000000000,0.15600000000000000,0.18100000000000000
76900.00000000000000000,-0.00006190000000000,-0.00006050000000000,-0.00005970000000000,-0.00000001060000000,0.00000025500000000,0.00005810000000000,0.00010100000000000,-0.00000264000000000,-0.00011900000000000,0.01070000000000000,0.00042400000000000,-0.01270000000000000,0.00002730000000000,0.00073800000000000,0.15600000000000000,0.18100000000000000
77000.00000000000000000,-0.00006230000000000,-0.00006090000000000,-0.00006010000000000,-0.00000000865000000,0.00000034700000000,0.00005810000000000,0.00010100000000000,-0.00000303000000000,-0.00011900000000000,0.01080000000000000,0.00042800000000000,-0.01270000000000000,0.00004220000000000,0.00079100000000000,0.15700000000000000,0.18100000000000000
77100.00000000000000000,-0.00006260000000000,-0.00006120000000000,-0.00006040000000000,-0.00000000699000000,0.00000041800000000,0.00005810000000000,0.00010100000000000,-0.00000334000000000,-0.00012000000000000,0.01090000000000000,0.00043000000000000,-0.01280000000000000,0.00005400000000000,0.00083300000000000,0.15700000000000000,0.18200000000000000
77200.00000000000000000,-0.00006280000000000,-0.00006140000000000,-0.00006060000000000,-0.00000000585000000,0.00000046300000000,0.00005810000000000,0.00010100000000000,-0.00000352000000000,-0.00012000000000000,0.01090000000000000,0.00043200000000000,-0.01290000000000000,0.00006150000000000,0.00085900000000000,0.15700000000000000,0.18200000000000000
77300.00000000000000000,-0.00006280000000000,-0.00006150000000000,-0.00006070000000000,-0.00000000570000000,0.00000047500000000,0.00005820000000000,0.00010100000000000,-0.00000358000000000,-0.00012000000000000,0.01100000000000000,0.00043300000000000,-0.01290000000000000,0.00006380000000000,0.00086600000000000,0.15800000000000000,0.18300000000000000
77400.00000000000000000,-0.00006290000000000,-0.00006150000000000,-0.00006060000000000,-0.00000000623000000,0.00000045900000000,0.00005820000000000,0.00010100000000000,-0.00000356000000000,-0.00012000000000000,0.01100000000000000,0.00043300000000000,-0.01300000000000000,0.00006140000000000,0.00085800000000000,0.15800000000000000,0.18300000000000000
77500.00000000000000000,-0.00006280000000000,-0.00006140000000000,-0.00006050000000000,-0.00000000732000000,0.00000041600000000,0.00005820000000000,0.00010100000000000,-0.00000345000000000,-0.00012000000000000,0.01110000000000000,0.00043100000000000,-0.01300000000000000,0.00005440000000000,0.00083300000000000,0.15800000000000000,0.18300000000000000
77600.00000000000000000,-0.00006260000000000,-0.00006120000000000,-0.00006030000000000,-0.00000000919000000,0.00000034200000000,0.00005820000000000,0.00010100000000000,-0.00000320000000000,-0.00012000000000000,0.01110000000000000,0.00042900000000000,-0.01310000000000000,0.00004260000000000,0.00079100000000000,0.15900000000000000,0.18400000000000000
77700.00000000000000000,-0.00006220000000000,-0.00006090000000000,-0.00005990000000000,-0.00000001140000000,0.00000024800000000,0.00005820000000000,0.00010100000000000,-0.00000286000000000,-0.00011900000000000,0.01120000000000000,0.00042600000000000,-0.01310000000000000,0.00002750000000000,0.00073800000000000,0.15900000000000000,0.18400000000000000
77800.00000000000000000,-0.00006190000000000,-0.00006050000000000,-0.00005960000000000,-0.00000001370000000,0.00000014400000000,0.00005820000000000,0.00010100000000000,-0.00000249000000000,-0.00011900000000000,0.01120000000000000,0.00042300000000000,-0.01320000000000000,0.00001070000000000,0.00067900000000000,0.15900000000000000,0.18500000000000000
77900.00000000000000000,-0.00006160000000000,-0.00006020000000000,-0.00005920000000000,-0.00000001630000000,0.00000003890000000,0.00005830000000000,0.00010100000000000,-0.00000213000000000,-0.00011900000000000,0.01130000000000000,0.00042000000000000,-0.01320000000000000,-0.00000651000000000,0.00061900000000000,0.16000000000000000,0.18500000000000000
78000.00000000000000000,-0.00006130000000000,-0.00005990000000000,-0.00005890000000000,-0.00000001860000000,-0.00000006250000000,0.00005830000000000,0.00010100000000000,-0.00000180000000000,-0.00011800000000000,0.01140000000000000,0.00041700000000000,-0.01320000000000000,-0.00002300000000000,0.00056200000000000,0.16000000000000000,0.18500000000000000
78100.00000000000000000,-0.00006100000000000,-0.00005960000000000,-0.00005860000000000,-0.00000002050000000,-0.00000014800000000,0.00005830000000000,0.00010100000000000,-0.00000150000000000,-0.00011800000000000,0.01140000000000000,0.00041400000000000,-0.01330000000000000,-0.00003700000000000,0.00051300000000000,0.16000000000000000,0.18600000000000000
78200.00000000000000000,-0.00006080000000000,-0.00005940000000000,-0.00005830000000000,-0.00000002200000000,-0.00000021100000000,0.00005830000000000,0.00010100000000000,-0.00000128000000000,-0.00011800000000000,0.01150000000000000,0.00041200000000000,-0.01330000000000000,-0.00004740000000000,0.00047800000000000,0.16100000000000000,0.18600000000000000
78300.00000000000000000,-0.00006080000000000,-0.00005930000000000,-0.00005820000000000,-0.00000002290000000,-0.00000024700000000,0.00005830000000000,0.00010100000000000,-0.00000117000000000,-0.00011800000000000,0.01150000000000000,0.00041100000000000,-0.01340000000000000,-0.00005320000000000,0.00045800000000000,0.16100000000000000,0.18700000000000000
78400.00000000000000000,-0.00006080000000000,-0.00005940000000000,-0.00005830000000000,-0.00000002270000000,-0.00000025000000000,0.00005830000000000,0.00010100000000000,-0.00000118000000000,-0.00011800000000000,0.01160000000000000,0.00041100000000000,-0.01350000000000000,-0.00005370000000000,0.00045700000000000,0.16100000000000000,0.18700000000000000
78500.00000000000000000,-0.00006100000000000,-0.00005950000000000,-0.00005840000000000,-0.00000002220000000,-0.00000022700000000,0.00005840000000000,0.00010100000000000,-0.00000132000000000,-0.00011800000000000,0.01170000000000000,0.00041300000000000,-0.01350000000000000,-0.00004960000000000,0.00047100000000000,0.16200000000000000,0.18700000000000000
78600.00000000000000000,-0.00006120000000000,-0.00005980000000000,-0.00005870000000000,-0.00000002090000000,-0.00000017500000000,0.00005840000000000,0.00010100000000000,-0.00000156000000000,-0.00011800000000000,0.01170000000000000,0.00041500000000000,-0.01360000000000000,-0.00004070000000000,0.00050200000000000,0.16200000000000000,0.18800000000000000
78700.00000000000000000,-0.00006160000000000,-0.00006010000000000,-0.00005900000000000,-0.00000001900000000,-0.00000009580000000,0.00005840000000000,0.00010100000000000,-0.00000189000000000,-0.00011900000000000,0.01180000000000000,0.00041800000000000,-0.01370000000000000,-0.00002720000000000,0.00054800000000000,0.16200000000000000,0.18800000000000000
78800.00000000000000000,-0.00006200000000000,-0.00006050000000000,-0.00005940000000000,-0.00000001680000000,0.00000000008550000,0.00005840000000000,0.00010100000000000,-0.00000228000000000,-0.00011900000000000,0.01180000000000000,0.00042100000000000,-0.01370000000000000,-0.00001100000000000,0.00060400000000000,0.16300000000000000,0.18900000000000000
78900.00000000000000000,-0.00006240000000000,-0.00006090000000000,-0.00005990000000000,-0.00000001460000000,0.00000010400000000,0.00005840000000000,0.00010100000000000,-0.00000270000000000,-0.00012000000000000,0.01190000000000000,0.00042500000000000,-0.01380000000000000,0.00000652000000000,0.00066400000000000,0.16300000000000000,0.18900000000000000
79000.00000000000000000,-0.00006280000000000,-0.00006130000000000,-0.00006030000000000,-0.00000001210000000,0.00000020600000000,0.00005840000000000,0.00010100000000000,-0.00000313000000000,-0.00012000000000000,0.01190000000000000,0.00042900000000000,-0.01390000000000000,0.00002410000000000,0.00072300000000000,0.16300000000000000,0.18900000000000000
79100.00000000000000000,-0.00006320000000000,-0.00006170000000000,-0.00006070000000000,-0.00000001010000000,0.00000030100000000,0.00005840000000000,0.00010100000000000,-0.00000353000000000,-0.00012000000000000,0.01200000000000000,0.00043300000000000,-0.01390000000000000,0.00004000000000000,0.00077700000000000,0.16400000000000000,0.19000000000000000
79200.00000000000000000,-0.00006360000000000,-0.00006210000000000,-0.00006110000000000,-0.00000000860000000,0.00000037700000000,0.00005850000000000,0.00010100000000000,-0.00000386000000000,-0.00012100000000000,0.01200000000000000,0.00043600000000000,-0.01400000000000000,0.00005310000000000,0.00082100000000000,0.16400000000000000,0.19000000000000000
79300.00000000000000000,-0.00006380000000000,-0.00006230000000000,-0.00006130000000000,-0.00000000732000000,0.00000042800000000,0.00005850000000000,0.00010100000000000,-0.00000406000000000,-0.00012100000000000,0.01210000000000000,0.00043800000000000,-0.01410000000000000,0.00006210000000000,0.00085100000000000,0.16400000000000000,0.19000000000000000
79400.00000000000000000,-0.00006390000000000,-0.00006240000000000,-0.00006140000000000,-0.00000000693000000,0.00000044900000000,0.00005850000000000,0.00010100000000000,-0.00000415000000000,-0.00012100000000000,0.01220000000000000,0.00043900000000000,-0.01410000000000000,0.00006590000000000,0.00086300000000000,0.16500000000000000,0.19100000000000000
79500.00000000000000000,-0.00006390000000000,-0.00006240000000000,-0.00006140000000000,-0.00000000730000000,0.00000043900000000,0.00005850000000000,0.00010100000000000,-0.00000416000000000,-0.00012100000000000,0.01220000000000000,0.00043900000000000,-0.01420000000000000,0.00006450000000000,0.00085700000000000,0.16500000000000000,0.19100000000000000
79600.00000000000000000,-0.00006390000000000,-0.00006230000000000,-0.00006130000000000,-0.00000000818000000,0.00000040400000000,0.00005850000000000,0.00010100000000000,-0.00000407000000000,-0.00012100000000000,0.01230000000000000,0.00043800000000000,-0.01420000000000000,0.00005860000000000,0.00083800000000000,0.16500000000000000,0.19200000000000000
79700.00000000000000000,-0.00006370000000000,-0.00006220000000000,-0.00006110000000000,-0.00000000977000000,0.00000033800000000,0.00005850000000000,0.00010100000000000,-0.00000386000000000,-0.00012100000000000,0.01230000000000000,0.00043600000000000,-0.01430000000000000,0.00004750000000000,0.00080100000000000,0.16600000000000000,0.19200000000000000
79800.00000000000000000,-0.00006340000000000,-0.00006190000000000,-0.00006080000000000,-0.00000001190000000,0.00000025000000000,0.00005850000000000,0.00010100000000000,-0.00000354000000000,-0.00012100000000000,0.01240000000000000,0.00043300000000000,-0.01430000000000000,0.00003260000000000,0.00075100000000000,0.16600000000000000,0.19200000000000000
79900.00000000000000000,-0.00006310000000000,-0.00006150000000000,-0.00006040000000000,-0.00000001400000000,0.00000015000000000,0.00005860000000000,0.00010100000000000,-0.00000318000000000,-0.00012000000000000,0.01250000000000000,0.00043000000000000,-0.01440000000000000,0.00001580000000000,0.00069400000000000,0.16600000000000000,0.19300000000000000
80000.00000000000000000,-0.00006280000000000,-0.00006120000000000,-0.00006010000000000,-0.00000001630000000,0.00000004650000000,0.00005860000000000,0.00010100000000000,-0.00000283000000000,-0.00012000000000000,0.01250000000000000,0.00042700000000000,-0.01440000000000000,-0.00000190000000000,0.00063600000000000,0.16700000000000000,0.19300000000000000
80100.00000000000000000,-0.00006250000000000,-0.00006090000000000,-0.00005970000000000,-0.00000001870000000,-0.00000005240000000,0.00005860000000000,0.00010200000000000,-0.00000250000000000,-0.00012000000000000,0.01260000000000000,0.00042400000000000,-0.01450000000000000,-0.00001890000000000,0.00058000000000000,0.16700000000000000,0.19400000000000000
80200.00000000000000000,-0.00006220000000000,-0.00006070000000000,-0.00005940000000000,-0.00000002040000000,-0.00000014000000000,0.00005860000000000,0.00010200000000000,-0.00000221000000000,-0.00011900000000000,0.01260000000000000,0.00042100000000000,-0.01450000000000000,-0.00003370000000000,0.00053100000000000,0.16700000000000000,0.19400000000000000
80300.00000000000000000,-0.00006200000000000,-0.00006050000000000,-0.00005920000000000,-0.00000002190000000,-0.00000020400000000,0.00005860000000000,0.00010200000000000,-0.00000197000000000,-0.00011900000000000,0.01270000000000000,0.00041900000000000,-0.01460000000000000,-0.00004490000000000,0.00049500000000000,0.16800000000000000,0.19400000000000000
80400.00000000000000000,-0.00006190000000000,-0.00006040000000000,-0.00005910000000000,-0.00000002280000000,-0.00000024300000000,0.00005860000000000,0.00010200000000000,-0.00000186000000000,-0.00011900000000000,0.01280000000000000,0.00041800000000000,-0.01470000000000000,-0.00005150000000000,0.00047300000000000,0.16800000000000000,0.19500000000000000
80500.00000000000000000,-0.00006190000000000,-0.00006040000000000,-0.00005910000000000,-0.00000002270000000,-0.00000025000000000,0.00005870000000000,0.00010200000000000,-0.00000185000000000,-0.00011900000000000,0.01280000000000000,0.00041800000000000,-0.01470000000000000,-0.00005260000000000,0.00047000000000000,0.16800000000000000,0.19500000000000000
80600.00000000000000000,-0.00006210000000000,-0.00006050000000000,-0.00005920000000000,-0.00000002230000000,-0.00000023000000000,0.00005870000000000,0.00010200000000000,-0.00000198000000000,-0.00011900000000000,0.01290000000000000,0.00041900000000000,-0.01480000000000000,-0.00004900000000000,0.00048200000000000,0.16900000000000000,0.19600000000000000
80700.00000000000000000,-0.00006230000000000,-0.00006070000000000,-0.00005950000000000,-0.00000002120000000,-0.00000018300000000,0.00005870000000000,0.00010200000000000,-0.00000220000000000,-0.00012000000000000,0.01290000000000000,0.00042200000000000,-0.01490000000000000,-0.00004050000000000,0.00050900000000000,0.16900000000000000,0.19600000000000000
80800.00000000000000000,-0.00006270000000000,-0.00006110000000000,-0.00005980000000000,-0.00000001940000000,-0.00000010700000000,0.00005870000000000,0.00010200000000000,-0.00000251000000000,-0.00012000000000000,0.01300000000000000,0.00042400000000000,-0.01490000000000000,-0.00002700000000000,0.00055400000000000,0.16900000000000000,0.19600000000000000
80900.00000000000000000,-0.00006300000000000,-0.00006140000000000,-0.00006020000000000,-0.00000001740000000,-0.00000001320000000,0.00005870000000000,0.00010200000000000,-0.00000289000000000,-0.00012000000000000,0.01310000000000000,0.00042800000000000,-0.01500000000000000,-0.00001050000000000,0.00060800000000000,0.17000000000000000,0.19700000000000000
81000.00000000000000000,-0.00006350000000000,-0.00006180000000000,-0.00006060000000000,-0.00000001530000000,0.00000008890000000,0.00005870000000000,0.00010200000000000,-0.00000330000000000,-0.00012100000000000,0.01310000000000000,0.00043200000000000,-0.01510000000000000,0.00000743000000000,0.00066600000000000,0.17000000000000000,0.19700000000000000
81100.00000000000000000,-0.00006390000000000,-0.00006230000000000,-0.00006110000000000,-0.00000001300000000,0.00000018900000000,0.00005880000000000,0.00010200000000000,-0.00000373000000000,-0.00012100000000000,0.01320000000000000,0.00043600000000000,-0.01510000000000000,0.00002540000000000,0.00072400000000000,0.17000000000000000,0.19700000000000000
81200.00000000000000000,-0.00006430000000000,-0.00006270000000000,-0.00006150000000000,-0.00000001110000000,0.00000028000000000,0.00005880000000000,0.00010200000000000,-0.00000412000000000,-0.00012200000000000,0.01320000000000000,0.00043900000000000,-0.01520000000000000,0.00004160000000000,0.00077600000000000,0.17100000000000000,0.19800000000000000
81300.00000000000000000,-0.00006460000000000,-0.00006300000000000,-0.00006180000000000,-0.00000000968000000,0.00000035600000000,0.00005880000000000,0.00010200000000000,-0.00000444000000000,-0.00012200000000000,0.01330000000000000,0.00044200000000000,-0.01530000000000000,0.00005510000000000,0.00081900000000000,0.17100000000000000,0.19800000000000000
81400.00000000000000000,-0.00006480000000000,-0.00006320000000000,-0.00006210000000000,-0.00000000844000000,0.00000040700000000,0.00005880000000000,0.00010200000000000,-0.00000464000000000,-0.00012200000000000,0.01340000000000000,0.00044400000000000,-0.01530000000000000,0.00006440000000000,0.00084900000000000,0.17100000000000000,0.19800000000000000
81500.00000000000000000,-0.00006500000000000,-0.00006330000000000,-0.00006220000000000,-0.00000000810000000,0.00000042600000000,0.00005880000000000,0.00010200000000000,-0.00000472000000000,-0.00012200000000000,0.01340000000000000,0.00044500000000000,-0.01540000000000000,0.00006810000000000,0.00086000000000000,0.17200000000000000,0.19900000000000000
81600.00000000000000000,-0.00006500000000000,-0.00006330000000000,-0.00006220000000000,-0.00000000849000000,0.00000041700000000,0.00005880000000000,0.00010200000000000,-0.00000473000000000,-0.00012200000000000,0.01350000000000000,0.00044500000000000,-0.01550000000000000,0.00006670000000000,0.00085500000000000,0.17200000000000000,0.19900000000000000
81700.00000000000000000,-0.00006490000000000,-0.00006330000000000,-0.00006210000000000,-0.00000000930000000,0.00000038200000000,0.00005880000000000,0.00010200000000000,-0.00000465000000000,-0.00012200000000000,0.01350000000000000,0.00044400000000000,-0.01550000000000000,0.00006060000000000,0.00083600000000000,0.17200000000000000,0.20000000000000000
81800.00000000000000000,-0.00006480000000000,-0.00006310000000000,-0.00006190000000000,-0.00000001080000000,0.00000031600000000,0.00005890000000000,0.00010200000000000,-0.00000444000000000,-0.00012200000000000,0.01360000000000000,0.00044200000000000,-0.01560000000000000,0.00004910000000000,0.00079800000000000,0.17300000000000000,0.20000000000000000
81900.00000000000000000,-0.00006450000000000,-0.00006280000000000,-0.00006160000000000,-0.00000001270000000,0.00000023000000000,0.00005890000000000,0.00010200000000000,-0.00000413000000000,-0.00012200000000000,0.01370000000000000,0.00043900000000000,-0.01560000000000000,0.00003390000000000,0.00075000000000000,0.17300000000000000,0.20000000000000000
82000.00000000000000000,-0.00006420000000000,-0.00006250000000000,-0.00006120000000000,-0.00000001480000000,0.00000013300000000,0.00005890000000000,0.00010200000000000,-0.00000377000000000,-0.00012200000000000,0.01370000000000000,0.00043600000000000,-0.01570000000000000,0.00001660000000000,0.00069500000000000,0.17300000000000000,0.20100000000000000
82100.00000000000000000,-0.00006380000000000,-0.00006220000000000,-0.00006090000000000,-0.00000001700000000,0.00000003320000000,0.00005890000000000,0.00010200000000000,-0.00000343000000000,-0.00012100000000000,0.01380000000000000,0.00043300000000000,-0.01570000000000000,-0.00000140000000000,0.00063900000000000,0.17400000000000000,0.20100000000000000
82200.00000000000000000,-0.00006360000000000,-0.00006190000000000,-0.00006050000000000,-0.00000001910000000,-0.00000006520000000,0.00005890000000000,0.00010200000000000,-0.00000310000000000,-0.00012100000000000,0.01380000000000000,0.00043000000000000,-0.01580000000000000,-0.00001890000000000,0.00058400000000000,0.17400000000000000,0.20200000000000000
82300.00000000000000000,-0.00006330000000000,-0.00006160000000000,-0.00006020000000000,-0.00000002070000000,-0.00000014900000000,0.00005890000000000,0.00010200000000000,-0.00000283000000000,-0.00012100000000000,0.01390000000000000,0.00042800000000000,-0.01590000000000000,-0.00003360000000000,0.00053700000000000,0.17400000000000000,0.20200000000000000
82400.00000000000000000,-0.00006310000000000,-0.00006140000000000,-0.00006000000000000,-0.00000002210000000,-0.00000020900000000,0.00005900000000000,0.00010200000000000,-0.00000261000000000,-0.00012100000000000,0.01400000000000000,0.00042600000000000,-0.01590000000000000,-0.00004470000000000,0.00050300000000000,0.17500000000000000,0.20200000000000000
82500.00000000000000000,-0.00006310000000000,-0.00006130000000000,-0.00005990000000000,-0.00000002280000000,-0.00000024500000000,0.00005900000000000,0.00010200000000000,-0.00000251000000000,-0.00012000000000000,0.01400000000000000,0.00042500000000000,-0.01600000000000000,-0.00005090000000000,0.00048400000000000,0.17500000000000000,0.20300000000000000
82600.00000000000000000,-0.00006310000000000,-0.00006140000000000,-0.00006000000000000,-0.00000002270000000,-0.00000024800000000,0.00005900000000000,0.00010200000000000,-0.00000252000000000,-0.00012100000000000,0.01410000000000000,0.00042500000000000,-0.01600000000000000,-0.00005140000000000,0.00048200000000000,0.17500000000000000,0.20300000000000000
82700.00000000000000000,-0.00006330000000000,-0.00006150000000000,-0.00006010000000000,-0.00000002220000000,-0.00000022400000000,0.00005900000000000,0.00010200000000000,-0.00000266000000000,-0.00012100000000000,0.01420000000000000,0.00042700000000000,-0.01610000000000000,-0.00004690000000000,0.00049700000000000,0.17600000000000000,0.20400000000000000
82800.00000000000000000,-0.00006350000000000,-0.00006180000000000,-0.00006040000000000,-0.00000002110000000,-0.00000017100000000,0.00005900000000000,0.00010200000000000,-0.00000290000000000,-0.00012100000000000,0.01420000000000000,0.00042900000000000,-0.01620000000000000,-0.00003720000000000,0.00052700000000000,0.17600000000000000,0.20400000000000000
82900.00000000000000000,-0.00006380000000000,-0.00006210000000000,-0.00006070000000000,-0.00000001930000000,-0.00000009330000000,0.00005900000000000,0.00010200000000000,-0.00000321000000000,-0.00012100000000000,0.01430000000000000,0.00043200000000000,-0.01620000000000000,-0.00002280000000000,0.00057200000000000,0.17600000000000000,0.20400000000000000
83000.00000000000000000,-0.00006420000000000,-0.00006250000000000,-0.00006110000000000,-0.00000001750000000,-0.00000000205000000,0.00005900000000000,0.00010200000000000,-0.00000359000000000,-0.00012200000000000,0.01440000000000000,0.00043500000000000,-0.01630000000000000,-0.00000582000000000,0.00062500000000000,0.17700000000000000,0.20500000000000000
83100.00000000000000000,-0.00006460000000000,-0.00006290000000000,-0.00006150000000000,-0.00000001550000000,0.00000009750000000,0.00005910000000000,0.00010200000000000,-0.00000400000000000,-0.00012200000000000,0.01440000000000000,0.00043900000000000,-0.01640000000000000,0.00001250000000000,0.00068100000000000,0.17700000000000000,0.20500000000000000
83200.00000000000000000,-0.00006510000000000,-0.00006330000000000,-0.00006200000000000,-0.00000001330000000,0.00000019500000000,0.00005910000000000,0.00010200000000000,-0.00000441000000000,-0.00012300000000000,0.01450000000000000,0.00044300000000000,-0.01650000000000000,0.00003070000000000,0.00073700000000000,0.17700000000000000,0.20500000000000000
83300.00000000000000000,-0.00006540000000000,-0.00006370000000000,-0.00006230000000000,-0.00000001170000000,0.00000028200000000,0.00005910000000000,0.00010200000000000,-0.00000479000000000,-0.00012300000000000,0.01450000000000000,0.00044600000000000,-0.01650000000000000,0.00004690000000000,0.00078700000000000,0.17800000000000000,0.20600000000000000
83400.00000000000000000,-0.00006570000000000,-0.00006390000000000,-0.00006270000000000,-0.00000001040000000,0.00000035300000000,0.00005910000000000,0.00010200000000000,-0.00000507000000000,-0.00012300000000000,0.01460000000000000,0.00044900000000000,-0.01660000000000000,0.00005990000000000,0.00082700000000000,0.17800000000000000,0.20600000000000000
83500.00000000000000000,-0.00006590000000000,-0.00006410000000000,-0.00006280000000000,-0.00000000932000000,0.00000039500000000,0.00005910000000000,0.00010200000000000,-0.00000525000000000,-0.00012400000000000,0.01470000000000000,0.00045100000000000,-0.01670000000000000,0.00006820000000000,0.00085200000000000,0.17800000000000000,0.20700000000000000
83600.00000000000000000,-0.00006600000000000,-0.00006420000000000,-0.00006290000000000,-0.00000000925000000,0.00000040800000000,0.00005910000000000,0.00010200000000000,-0.00000531000000000,-0.00012400000000000,0.01470000000000000,0.00045100000000000,-0.01680000000000000,0.00007080000000000,0.00085900000000000,0.17900000000000000,0.20700000000000000
83700.00000000000000000,-0.00006600000000000,-0.00006420000000000,-0.00006290000000000,-0.00000000975000000,0.00000039300000000,0.00005910000000000,0.00010200000000000,-0.00000530000000000,-0.00012400000000000,0.01480000000000000,0.00045100000000000,-0.01680000000000000,0.00006800000000000,0.00085100000000000,0.17900000000000000,0.20700000000000000
83800.00000000000000000,-0.00006590000000000,-0.00006410000000000,-0.00006280000000000,-0.00000001070000000,0.00000035100000000,0.00005920000000000,0.00010300000000000,-0.00000519000000000,-0.00012400000000000,0.01490000000000000,0.00045000000000000,-0.01690000000000000,0.00006030000000000,0.00082700000000000,0.17900000000000000,0.20800000000000000
83900.00000000000000000,-0.00006570000000000,-0.00006390000000000,-0.00006260000000000,-0.00000001230000000,0.00000028000000000,0.00005920000000000,0.00010300000000000,-0.00000494000000000,-0.00012300000000000,0.01490000000000000,0.00044800000000000,-0.01690000000000000,0.00004730000000000,0.00078700000000000,0.18000000000000000,0.20800000000000000
84000.00000000000000000,-0.00006540000000000,-0.00006360000000000,-0.00006220000000000,-0.00000001410000000,0.00000019000000000,0.00005920000000000,0.00010300000000000,-0.00000462000000000,-0.00012300000000000,0.01500000000000000,0.00044500000000000,-0.01700000000000000,0.00003080000000000,0.00073700000000000,0.18000000000000000,0.20900000000000000
84100.00000000000000000,-0.00006510000000000,-0.00006330000000000,-0.00006190000000000,-0.00000001600000000,0.00000009430000000,0.00005920000000000,0.00010300000000000,-0.00000427000000000,-0.00012300000000000,0.01510000000000000,0.00044200000000000,-0.01700000000000000,0.00001290000000000,0.00068300000000000,0.18000000000000000,0.20900000000000000
84200.00000000000000000,-0.00006490000000000,-0.00006300000000000,-0.00006160000000000,-0.00000001810000000,-0.00000000708000000,0.00005920000000000,0.00010300000000000,-0.00000395000000000,-0.00012200000000000,0.01510000000000000,0.00043900000000000,-0.01710000000000000,-0.00000568000000000,0.00062600000000000,0.18100000000000000,0.20900000000000000
84300.00000000000000000,-0.00006460000000000,-0.00006270000000000,-0.00006120000000000,-0.00000002000000000,-0.00000009690000000,0.00005920000000000,0.00010300000000000,-0.00000365000000000,-0.00012200000000000,0.01520000000000000,0.00043600000000000,-0.01720000000000000,-0.00002260000000000,0.00057600000000000,0.18100000000000000,0.21000000000000000
84400.00000000000000000,-0.00006430000000000,-0.00006250000000000,-0.00006100000000000,-0.00000002140000000,-0.00000017200000000,0.00005920000000000,0.00010300000000000,-0.00000339000000000,-0.00012200000000000,0.01520000000000000,0.00043400000000000,-0.01720000000000000,-0.00003650000000000,0.00053500000000000,0.18100000000000000,0.21000000000000000
84500.00000000000000000,-0.00006420000000000,-0.00006230000000000,-0.00006080000000000,-0.00000002260000000,-0.00000022400000000,0.00005930000000000,0.00010300000000000,-0.00000320000000000,-0.00012200000000000,0.01530000000000000,0.00043200000000000,-0.01730000000000000,-0.00004630000000000,0.00050600000000000,0.18200000000000000,0.21100000000000000
84600.00000000000000000,-0.00006420000000000,-0.00006230000000000,-0.00006070000000000,-0.00000002300000000,-0.00000024700000000,0.00005930000000000,0.00010300000000000,-0.00000314000000000,-0.00012200000000000,0.01540000000000000,0.00043200000000000,-0.01730000000000000,-0.00005060000000000,0.00049300000000000,0.18200000000000000,0.21100000000000000
84700.00000000000000000,-0.00006430000000000,-0.00006240000000000,-0.00006080000000000,-0.00000002270000000,-0.00000024200000000,0.00005930000000000,0.00010300000000000,-0.00000321000000000,-0.00012200000000000,0.01540000000000000,0.00043200000000000,-0.01740000000000000,-0.00004940000000000,0.00049700000000000,0.18200000000000000,0.21100000000000000
84800.00000000000000000,-0.00006450000000000,-0.00006260000000000,-0.00006100000000000,-0.00000002210000000,-0.00000020800000000,0.00005930000000000,0.00010300000000000,-0.00000339000000000,-0.00012200000000000,0.01550000000000000,0.00043400000000000,-0.01750000000000000,-0.00004280000000000,0.00051700000000000,0.18300000000000000,0.21200000000000000
84900.00000000000000000,-0.00006470000000000,-0.00006280000000000,-0.00006130000000000,-0.00000002070000000,-0.00000014400000000,0.00005930000000000,0.00010300000000000,-0.00000364000000000,-0.00012200000000000,0.01560000000000000,0.00043600000000000,-0.01760000000000000,-0.00003070000000000,0.00055300000000000,0.18300000000000000,0.21200000000000000
85000.00000000000000000,-0.00006510000000000,-0.00006320000000000,-0.00006160000000000,-0.00000001890000000,-0.00000006140000000,0.00005940000000000,0.00010300000000000,-0.00000397000000000,-0.00012300000000000,0.01560000000000000,0.00043900000000000,-0.01760000000000000,-0.00001470000000000,0.00060100000000000,0.18300000000000000,0.21200000000000000
85100.00000000000000000,-0.00006550000000000,-0.00006360000000000,-0.00006200000000000,-0.00000001720000000,0.00000003280000000,0.00005940000000000,0.00010300000000000,-0.00000437000000000,-0.00012300000000000,0.01570000000000000,0.00044300000000000,-0.01770000000000000,0.00000340000000000,0.00065400000000000,0.18400000000000000,0.21300000000000000
85200.00000000000000000,-0.00006590000000000,-0.00006400000000000,-0.00006250000000000,-0.00000001510000000,0.00000012900000000,0.00005940000000000,0.00010300000000000,-0.00000478000000000,-0.00012400000000000,0.01580000000000000,0.00044700000000000,-0.01780000000000000,0.00002230000000000,0.00070900000000000,0.18400000000000000,0.21300000000000000
85300.00000000000000000,-0.00006630000000000,-0.00006440000000000,-0.00006290000000000,-0.00000001330000000,0.00000022300000000,0.00005940000000000,0.00010300000000000,-0.00000518000000000,-0.00012400000000000,0.01580000000000000,0.00045100000000000,-0.01790000000000000,0.00004030000000000,0.00076200000000000,0.18400000000000000,0.21400000000000000
85400.00000000000000000,-0.00006660000000000,-0.00006470000000000,-0.00006320000000000,-0.00000001200000000,0.00000030500000000,0.00005940000000000,0.00010300000000000,-0.00000550000000000,-0.00012400000000000,0.01590000000000000,0.00045400000000000,-0.01790000000000000,0.00005570000000000,0.00080800000000000,0.18500000000000000,0.21400000000000000
85500.00000000000000000,-0.00006690000000000,-0.00006490000000000,-0.00006350000000000,-0.00000001070000000,0.00000036100000000,0.00005940000000000,0.00010300000000000,-0.00000572000000000,-0.00012500000000000,0.01600000000000000,0.00045600000000000,-0.01800000000000000,0.00006690000000000,0.00084000000000000,0.18500000000000000,0.21400000000000000
85600.00000000000000000,-0.00006700000000000,-0.00006510000000000,-0.00006360000000000,-0.00000001010000000,0.00000038900000000,0.00005940000000000,0.00010300000000000,-0.00000585000000000,-0.00012500000000000,0.01600000000000000,0.00045700000000000,-0.01810000000000000,0.00007260000000000,0.00085700000000000,0.18500000000000000,0.21500000000000000
85700.00000000000000000,-0.00006710000000000,-0.00006510000000000,-0.00006370000000000,-0.00000001040000000,0.00000038600000000,0.00005950000000000,0.00010300000000000,-0.00000588000000000,-0.00012500000000000,0.01610000000000000,0.00045700000000000,-0.01820000000000000,0.00007230000000000,0.00085400000000000,0.18600000000000000,0.21500000000000000
85800.00000000000000000,-0.00006710000000000,-0.00006510000000000,-0.00006360000000000,-0.00000001100000000,0.00000036000000000,0.00005950000000000,0.00010300000000000,-0.00000583000000000,-0.00012500000000000,0.01620000000000000,0.00045700000000000,-0.01820000000000000,0.00006720000000000,0.00084000000000000,0.18600000000000000,0.21600000000000000
85900.00000000000000000,-0.00006690000000000,-0.00006490000000000,-0.00006340000000000,-0.00000001230000000,0.00000030200000000,0.00005950000000000,0.00010300000000000,-0.00000565000000000,-0.00012500000000000,0.01620000000000000,0.00045500000000000,-0.01830000000000000,0.00005630000000000,0.00080800000000000,0.18600000000000000,0.21600000000000000
86000.00000000000000000,-0.00006660000000000,-0.00006470000000000,-0.00006310000000000,-0.00000001400000000,0.00000022400000000,0.00005950000000000,0.00010300000000000,-0.00000535000000000,-0.00012400000000000,0.01630000000000000,0.00045200000000000,-0.01840000000000000,0.00004110000000000,0.00076500000000000,0.18700000000000000,0.21600000000000000
86100.00000000000000000,-0.00006630000000000,-0.00006440000000000,-0.00006280000000000,-0.00000001560000000,0.00000013000000000,0.00005950000000000,0.00010300000000000,-0.00000502000000000,-0.00012400000000000,0.01640000000000000,0.00044900000000000,-0.01840000000000000,0.00002330000000000,0.00071200000000000,0.18700000000000000,0.21700000000000000
86200.00000000000000000,-0.00006610000000000,-0.00006410000000000,-0.00006250000000000,-0.00000001770000000,0.00000003480000000,0.00005950000000000,0.00010300000000000,-0.00000470000000000,-0.00012400000000000,0.01650000000000000,0.00044600000000000,-0.01850000000000000,0.00000455000000000,0.00065900000000000,0.18700000000000000,0.21700000000000000
86300.00000000000000000,-0.00006580000000000,-0.00006380000000000,-0.00006220000000000,-0.00000001950000000,-0.00000006130000000,0.00005960000000000,0.00010300000000000,-0.00000439000000000,-0.00012400000000000,0.01650000000000000,0.00044400000000000,-0.01850000000000000,-0.00001380000000000,0.00060500000000000,0.18800000000000000,0.21800000000000000
86400.00000000000000000,-0.00006550000000000,-0.00006350000000000,-0.00006190000000000,-0.00000002090000000,-0.00000014300000000,0.00005960000000000,0.00010300000000000,-0.00000411000000000,-0.00012300000000000,0.01660000000000000,0.00044100000000000,-0.01860000000000000,-0.00002960000000000,0.00056000000000000,0.18800000000000000,0.21800000000000000
86500.00000000000000000,-0.00006530000000000,-0.00006330000000000,-0.00006170000000000,-0.00000002220000000,-0.00000020400000000,0.00005960000000000,0.00010300000000000,-0.00000389000000000,-0.00012300000000000,0.01670000000000000,0.00043900000000000,-0.01870000000000000,-0.00004150000000000,0.00052600000000000,0.18800000000000000,0.21800000000000000
86600.00000000000000000,-0.00006530000000000,-0.00006330000000000,-0.00006160000000000,-0.00000002300000000,-0.00000023700000000,0.00005960000000000,0.00010300000000000,-0.00000378000000000,-0.00012300000000000,0.01670000000000000,0.00043800000000000,-0.01870000000000000,-0.00004810000000000,0.00050800000000000,0.18900000000000000,0.21900000000000000
86700.00000000000000000,-0.00006530000000000,-0.00006330000000000,-0.00006160000000000,-0.00000002280000000,-0.00000024200000000,0.00005960000000000,0.00010300000000000,-0.00000380000000000,-0.00012300000000000,0.01680000000000000,0.00043900000000000,-0.01880000000000000,-0.00004880000000000,0.00050600000000000,0.18900000000000000,0.21900000000000000
86800.00000000000000000,-0.00006550000000000,-0.00006340000000000,-0.00006170000000000,-0.00000002240000000,-0.00000021800000000,0.00005960000000000,0.00010300000000000,-0.00000394000000000,-0.00012300000000000,0.01690000000000000,0.00044000000000000,-0.01890000000000000,-0.00004410000000000,0.00052000000000000,0.18900000000000000,0.22000000000000000
86900.00000000000000000,-0.00006570000000000,-0.00006370000000000,-0.00006200000000000,-0.00000002140000000,-0.00000017000000000,0.00005960000000000,0.00010300000000000,-0.00000417000000000,-0.00012400000000000,0.01690000000000000,0.00044200000000000,-0.01890000000000000,-0.00003410000000000,0.00054700000000000,0.19000000000000000,0.22000000000000000
87000.00000000000000000,-0.00006600000000000,-0.00006400000000000,-0.00006230000000000,-0.00000001970000000,-0.00000009090000000,0.00005970000000000,0.00010300000000000,-0.00000447000000000,-0.00012400000000000,0.01700000000000000,0.00044500000000000,-0.01900000000000000,-0.00001860000000000,0.00059300000000000,0.19000000000000000,0.22000000000000000
87100.00000000000000000,-0.00006640000000000,-0.00006440000000000,-0.00006270000000000,-0.00000001820000000,-0.00000000195000000,0.00005970000000000,0.00010300000000000,-0.00000484000000000,-0.00012400000000000,0.01710000000000000,0.00044800000000000,-0.01910000000000000,-0.00000077400000000,0.00064300000000000,0.19000000000000000,0.22100000000000000
87200.00000000000000000,-0.00006680000000000,-0.00006480000000000,-0.00006310000000000,-0.00000001640000000,0.00000009590000000,0.00005970000000000,0.00010300000000000,-0.00000524000000000,-0.00012500000000000,0.01710000000000000,0.00045200000000000,-0.01920000000000000,0.00001850000000000,0.00069800000000000,0.19100000000000000,0.22100000000000000
87300.00000000000000000,-0.00006720000000000,-0.00006520000000000,-0.00006350000000000,-0.00000001440000000,0.00000018700000000,0.00005970000000000,0.00010300000000000,-0.00000564000000000,-0.00012500000000000,0.01720000000000000,0.00045600000000000,-0.01930000000000000,0.00003710000000000,0.00075000000000000,0.19100000000000000,0.22100000000000000
87400.00000000000000000,-0.00006760000000000,-0.00006550000000000,-0.00006390000000000,-0.00000001320000000,0.00000026900000000,0.00005970000000000,0.00010300000000000,-0.00000598000000000,-0.00012500000000000,0.01730000000000000,0.00045900000000000,-0.01930000000000000,0.00005340000000000,0.00079600000000000,0.19100000000000000,0.22200000000000000
87500.00000000000000000,-0.00006790000000000,-0.00006580000000000,-0.00006420000000000,-0.00000001200000000,0.00000033100000000,0.00005970000000000,0.00010400000000000,-0.00000624000000000,-0.00012600000000000,0.01730000000000000,0.00046100000000000,-0.01940000000000000,0.00006600000000000,0.00083100000000000,0.19100000000000000,0.22200000000000000
87600.00000000000000000,-0.00006800000000000,-0.00006590000000000,-0.00006430000000000,-0.00000001120000000,0.00000036900000000,0.00005980000000000,0.00010400000000000,-0.00000638000000000,-0.00012600000000000,0.01740000000000000,0.00046300000000000,-0.01950000000000000,0.00007360000000000,0.00085200000000000,0.19200000000000000,0.22200000000000000
87700.00000000000000000,-0.00006810000000000,-0.00006600000000000,-0.00006440000000000,-0.00000001140000000,0.00000037300000000,0.00005980000000000,0.00010400000000000,-0.00000643000000000,-0.00012600000000000,0.01750000000000000,0.00046300000000000,-0.01960000000000000,0.00007480000000000,0.00085400000000000,0.19200000000000000,0.22300000000000000
87800.00000000000000000,-0.00006810000000000,-0.00006600000000000,-0.00006440000000000,-0.00000001190000000,0.00000035300000000,0.00005980000000000,0.00010400000000000,-0.00000640000000000,-0.00012600000000000,0.01750000000000000,0.00046300000000000,-0.01960000000000000,0.00007080000000000,0.00084300000000000,0.19200000000000000,0.22300000000000000
87900.00000000000000000,-0.00006800000000000,-0.00006590000000000,-0.00006420000000000,-0.00000001280000000,0.00000030600000000,0.00005980000000000,0.00010400000000000,-0.00000626000000000,-0.00012600000000000,0.01760000000000000,0.00046200000000000,-0.01970000000000000,0.00006140000000000,0.00081700000000000,0.19300000000000000,0.22400000000000000
88000.00000000000000000,-0.00006770000000000,-0.00006560000000000,-0.00006390000000000,-0.00000001440000000,0.00000023100000000,0.00005980000000000,0.00010400000000000,-0.00000599000000000,-0.00012600000000000,0.01770000000000000,0.00045900000000000,-0.01980000000000000,0.00004650000000000,0.00077500000000000,0.19300000000000000,0.22400000000000000
88100.00000000000000000,-0.00006740000000000,-0.00006530000000000,-0.00006360000000000,-0.00000001590000000,0.00000014200000000,0.00005980000000000,0.00010400000000000,-0.00000567000000000,-0.00012500000000000,0.01780000000000000,0.00045600000000000,-0.01980000000000000,0.00002890000000000,0.00072600000000000,0.19300000000000000,0.22400000000000000
88200.00000000000000000,-0.00006720000000000,-0.00006500000000000,-0.00006330000000000,-0.00000001770000000,0.00000004870000000,0.00005980000000000,0.00010400000000000,-0.00000535000000000,-0.00012500000000000,0.01780000000000000,0.00045300000000000,-0.01990000000000000,0.00001010000000000,0.00067400000000000,0.19400000000000000,0.22500000000000000
88300.00000000000000000,-0.00006690000000000,-0.00006480000000000,-0.00006300000000000,-0.00000001960000000,-0.00000004540000000,0.00005990000000000,0.00010400000000000,-0.00000504000000000,-0.00012500000000000,0.01790000000000000,0.00045100000000000,-0.01990000000000000,-0.00000886000000000,0.00062200000000000,0.19400000000000000,0.22500000000000000
88400.00000000000000000,-0.00006670000000000,-0.00006450000000000,-0.00006270000000000,-0.00000002090000000,-0.00000012800000000,0.00005990000000000,0.00010400000000000,-0.00000478000000000,-0.00012500000000000,0.01800000000000000,0.00044800000000000,-0.02000000000000000,-0.00002530000000000,0.00057600000000000,0.19400000000000000,0.22600000000000000
88500.00000000000000000,-0.00006650000000000,-0.00006430000000000,-0.00006250000000000,-0.00000002210000000,-0.00000019100000000,0.00005990000000000,0.00010400000000000,-0.00000454000000000,-0.00012400000000000,0.01800000000000000,0.00044600000000000,-0.02010000000000000,-0.00003810000000000,0.00054200000000000,0.19500000000000000,0.22600000000000000
88600.00000000000000000,-0.00006640000000000,-0.00006420000000000,-0.00006240000000000,-0.00000002300000000,-0.00000023000000000,0.00005990000000000,0.00010400000000000,-0.00000442000000000,-0.00012400000000000,0.01810000000000000,0.00044500000000000,-0.02010000000000000,-0.00004580000000000,0.00052000000000000,0.19500000000000000,0.22600000000000000
88700.00000000000000000,-0.00006640000000000,-0.00006420000000000,-0.00006240000000000,-0.00000002280000000,-0.00000023600000000,0.00005990000000000,0.00010400000000000,-0.00000442000000000,-0.00012400000000000,0.01820000000000000,0.00044500000000000,-0.02020000000000000,-0.00004720000000000,0.00051800000000000,0.19500000000000000,0.22700000000000000
88800.00000000000000000,-0.00006650000000000,-0.00006440000000000,-0.00006250000000000,-0.00000002250000000,-0.00000021900000000,0.00005990000000000,0.00010400000000000,-0.00000454000000000,-0.00012400000000000,0.01830000000000000,0.00044600000000000,-0.02030000000000000,-0.00004340000000000,0.00052800000000000,0.19600000000000000,0.22700000000000000
88900.00000000000000000,-0.00006680000000000,-0.00006460000000000,-0.00006270000000000,-0.00000002170000000,-0.00000017300000000,0.00006000000000000,0.00010400000000000,-0.00000475000000000,-0.00012500000000000,0.01830000000000000,0.00044800000000000,-0.02040000000000000,-0.00003380000000000,0.00055400000000000,0.19600000000000000,0.22800000000000000
89000.00000000000000000,-0.00006710000000000,-0.00006490000000000,-0.00006300000000000,-0.00000002020000000,-0.00000010100000000,0.00006000000000000,0.00010400000000000,-0.00000504000000000,-0.00012500000000000,0.01840000000000000,0.00045100000000000,-0.02040000000000000,-0.00001890000000000,0.00059500000000000,0.19600000000000000,0.22800000000000000
89100.00000000000000000,-0.00006740000000000,-0.00006520000000000,-0.00006340000000000,-0.00000001870000000,-0.00000001510000000,0.00006000000000000,0.00010400000000000,-0.00000539000000000,-0.00012500000000000,0.01850000000000000,0.00045400000000000,-0.02050000000000000,-0.00000113000000000,0.00064300000000000,0.19700000000000000,0.22800000000000000
89200.00000000000000000,-0.00006780000000000,-0.00006560000000000,-0.00006380000000000,-0.00000001710000000,0.00000007940000000,0.00006000000000000,0.00010400000000000,-0.00000578000000000,-0.00012600000000000,0.01850000000000000,0.00045800000000000,-0.02060000000000000,0.00001820000000000,0.00069600000000000,0.19700000000000000,0.22900000000000000
89300.00000000000000000,-0.00006820000000000,-0.00006600000000000,-0.00006420000000000,-0.00000001530000000,0.00000017100000000,0.00006000000000000,0.00010400000000000,-0.00000617000000000,-0.00012600000000000,0.01860000000000000,0.00046100000000000,-0.02070000000000000,0.00003730000000000,0.00074700000000000,0.19700000000000000,0.22900000000000000
89400.00000000000000000,-0.00006860000000000,-0.00006630000000000,-0.00006460000000000,-0.00000001420000000,0.00000025300000000,0.00006000000000000,0.00010400000000000,-0.00000651000000000,-0.00012700000000000,0.01870000000000000,0.00046400000000000,-0.02080000000000000,0.00005410000000000,0.00079300000000000,0.19800000000000000,0.22900000000000000
89500.00000000000000000,-0.00006880000000000,-0.00006660000000000,-0.00006480000000000,-0.00000001300000000,0.00000031400000000,0.00006000000000000,0.00010400000000000,-0.00000676000000000,-0.00012700000000000,0.01870000000000000,0.00046700000000000,-0.02090000000000000,0.00006710000000000,0.00082700000000000,0.19800000000000000,0.23000000000000000
89600.00000000000000000,-0.00006900000000000,-0.00006680000000000,-0.00006500000000000,-0.00000001220000000,0.00000035200000000,0.00006010000000000,0.00010400000000000,-0.00000691000000000,-0.00012700000000000,0.01880000000000000,0.00046800000000000,-0.02090000000000000,0.00007510000000000,0.00084900000000000,0.19800000000000000,0.23000000000000000
89700.00000000000000000,-0.00006910000000000,-0.00006680000000000,-0.00006510000000000,-0.00000001240000000,0.00000035800000000,0.00006010000000000,0.00010400000000000,-0.00000697000000000,-0.00012700000000000,0.01890000000000000,0.00046900000000000,-0.02100000000000000,0.00007660000000000,0.00085200000000000,0.19900000000000000,0.23100000000000000
89800.00000000000000000,-0.00006910000000000,-0.00006680000000000,-0.00006510000000000,-0.00000001280000000,0.00000034100000000,0.00006010000000000,0.00010400000000000,-0.00000695000000000,-0.00012700000000000,0.01900000000000000,0.00046900000000000,-0.02110000000000000,0.00007290000000000,0.00084300000000000,0.19900000000000000,0.23100000000000000
89900.00000000000000000,-0.00006900000000000,-0.00006670000000000,-0.00006490000000000,-0.00000001370000000,0.00000029600000000,0.00006010000000000,0.00010400000000000,-0.00000681000000000,-0.00012700000000000,0.01900000000000000,0.00046700000000000,-0.02110000000000000,0.00006350000000000,0.00081800000000000,0.19900000000000000,0.23100000000000000
90000.00000000000000000,-0.00006880000000000,-0.00006650000000000,-0.00006470000000000,-0.00000001520000000,0.00000022200000000,0.00006010000000000,0.00010400000000000,-0.00000654000000000,-0.00012700000000000,0.01910000000000000,0.00046500000000000,-0.02120000000000000,0.00004850000000000,0.00077700000000000,0.20000000000000000,0.23200000000000000
90100.00000000000000000,-0.00006850000000000,-0.00006620000000000,-0.00006430000000000,-0.00000001650000000,0.00000013600000000,0.00006010000000000,0.00010400000000000,-0.00000624000000000,-0.00012700000000000,0.01920000000000000,0.00046200000000000,-0.02130000000000000,0.00003090000000000,0.00073000000000000,0.20000000000000000,0.23200000000000000
90200.00000000000000000,-0.00006820000000000,-0.00006590000000000,-0.00006400000000000,-0.00000001810000000,0.00000004300000000,0.00006020000000000,0.00010400000000000,-0.00000593000000000,-0.00012600000000000,0.01930000000000000,0.00045900000000000,-0.02130000000000000,0.00001160000000000,0.00067800000000000,0.20000000000000000,0.23300000000000000
90300.00000000000000000,-0.00006790000000000,-0.00006570000000000,-0.00006370000000000,-0.00000002000000000,-0.00000004700000000,0.00006020000000000,0.00010400000000000,-0.00000563000000000,-0.00012600000000000,0.01930000000000000,0.00045700000000000,-0.02140000000000000,-0.00000732000000000,0.00062800000000000,0.20100000000000000,0.23300000000000000
90400.00000000000000000,-0.00006770000000000,-0.00006540000000000,-0.00006350000000000,-0.00000002120000000,-0.00000012700000000,0.00006020000000000,0.00010400000000000,-0.00000537000000000,-0.00012600000000000,0.01940000000000000,0.00045400000000000,-0.02150000000000000,-0.00002390000000000,0.00058500000000000,0.20100000000000000,0.23300000000000000
90500.00000000000000000,-0.00006750000000000,-0.00006520000000000,-0.00006320000000000,-0.00000002230000000,-0.00000018900000000,0.00006020000000000,0.00010400000000000,-0.00000514000000000,-0.00012600000000000,0.01950000000000000,0.00045200000000000,-0.02150000000000000,-0.00003670000000000,0.00055100000000000,0.20100000000000000,0.23400000000000000
90600.00000000000000000,-0.00006740000000000,-0.00006510000000000,-0.00006310000000000,-0.00000002300000000,-0.00000022500000000,0.00006020000000000,0.00010400000000000,-0.00000503000000000,-0.00012600000000000,0.01960000000000000,0.00045200000000000,-0.02160000000000000,-0.00004420000000000,0.00053100000000000,0.20200000000000000,0.23400000000000000
90700.00000000000000000,-0.00006740000000000,-0.00006510000000000,-0.00006310000000000,-0.00000002310000000,-0.00000022600000000,0.00006020000000000,0.00010400000000000,-0.00000499000000000,-0.00012600000000000,0.01960000000000000,0.00045100000000000,-0.02170000000000000,-0.00004530000000000,0.00053100000000000,0.20200000000000000,0.23500000000000000
90800.00000000000000000,-0.00006770000000000,-0.00006540000000000,-0.00006340000000000,-0.00000002200000000,-0.00000020000000000,0.00006020000000000,0.00010400000000000,-0.00000524000000000,-0.00012600000000000,0.01970000000000000,0.00045400000000000,-0.02180000000000000,-0.00003740000000000,0.00054600000000000,0.20200000000000000,0.23500000000000000
90900.00000000000000000,-0.00006790000000000,-0.00006560000000000,-0.00006360000000000,-0.00000002180000000,-0.00000015000000000,0.00006030000000000,0.00010400000000000,-0.00000543000000000,-0.00012600000000000,0.01980000000000000,0.00045600000000000,-0.02190000000000000,-0.00002890000000000,0.00057300000000000,0.20300000000000000,0.23500000000000000
91000.00000000000000000,-0.00006820000000000,-0.00006590000000000,-0.00006390000000000,-0.00000002020000000,-0.00000005240000000,0.00006030000000000,0.00010400000000000,-0.00000571000000000,-0.00012600000000000,0.01990000000000000,0.00045800000000000,-0.02200000000000000,-0.00000865000000000,0.00063000000000000,0.20300000000000000,0.23600000000000000
91100.00000000000000000,-0.00006860000000000,-0.00006620000000000,-0.00006420000000000,-0.00000001850000000,0.00000000610000000,0.00006030000000000,0.00010400000000000,-0.00000606000000000,-0.00012700000000000,0.01990000000000000,0.00046100000000000,-0.02200000000000000,0.00000585000000000,0.00066200000000000,0.20300000000000000,0.23600000000000000
91200.00000000000000000,-0.00006920000000000,-0.00006680000000000,-0.00006490000000000,-0.00000001650000000,0.00000017700000000,0.00006030000000000,0.00010400000000000,-0.00000672000000000,-0.00012700000000000,0.02000000000000000,0.00046600000000000,-0.02210000000000000,0.00003940000000000,0.00075900000000000,0.20400000000000000,0.23600000000000000
91300.00000000000000000,-0.00006950000000000,-0.00006710000000000,-0.00006520000000000,-0.00000001430000000,0.00000021000000000,0.00006030000000000,0.00010500000000000,-0.00000698000000000,-0.00012800000000000,0.02010000000000000,0.00046900000000000,-0.02220000000000000,0.00005130000000000,0.00077500000000000,0.20400000000000000,0.23700000000000000
91400.00000000000000000,-0.00006970000000000,-0.00006730000000000,-0.00006540000000000,-0.00000001400000000,0.00000025300000000,0.00006030000000000,0.00010500000000000,-0.00000717000000000,-0.00012800000000000,0.02010000000000000,0.00047100000000000,-0.02230000000000000,0.00005950000000000,0.00079800000000000,0.20400000000000000,0.23700000000000000
91500.00000000000000000,-0.00006980000000000,-0.00006740000000000,-0.00006550000000000,-0.00000001360000000,0.00000028100000000,0.00006040000000000,0.00010500000000000,-0.00000722000000000,-0.00012800000000000,0.02020000000000000,0.00047200000000000,-0.02230000000000000,0.00006530000000000,0.00081500000000000,0.20500000000000000,0.23800000000000000
91600.00000000000000000,-0.00006970000000000,-0.00006730000000000,-0.00006530000000000,-0.00000001450000000,0.00000027000000000,0.00006040000000000,0.00010500000000000,-0.00000710000000000,-0.00012800000000000,0.02030000000000000,0.00047100000000000,-0.02240000000000000,0.00006070000000000,0.00080700000000000,0.20500000000000000,0.23800000000000000
91700.00000000000000000,-0.00006980000000000,-0.00006740000000000,-0.00006550000000000,-0.00000001410000000,0.00000026900000000,0.00006040000000000,0.00010500000000000,-0.00000722000000000,-0.00012800000000000,0.02040000000000000,0.00047200000000000,-0.02250000000000000,0.00006140000000000,0.00080800000000000,0.20500000000000000,0.23800000000000000
91800.00000000000000000,-0.00006960000000000,-0.00006720000000000,-0.00006530000000000,-0.00000001490000000,0.00000019000000000,0.00006040000000000,0.00010500000000000,-0.00000701000000000,-0.00012800000000000,0.02040000000000000,0.00047000000000000,-0.02260000000000000,0.00004720000000000,0.00076200000000000,0.20600000000000000,0.23900000000000000
91900.00000000000000000,-0.00006960000000000,-0.00006720000000000,-0.00006520000000000,-0.00000001560000000,0.00000017500000000,0.00006040000000000,0.00010500000000000,-0.00000691000000000,-0.00012800000000000,0.02050000000000000,0.00046900000000000,-0.02260000000000000,0.00004300000000000,0.00075500000000000,0.20600000000000000,0.23900000000000000
92000.00000000000000000,-0.00006940000000000,-0.00006700000000000,-0.00006500000000000,-0.00000001660000000,0.00000011100000000,0.00006040000000000,0.00010500000000000,-0.00000669000000000,-0.00012800000000000,0.02060000000000000,0.00046700000000000,-0.02270000000000000,0.00002980000000000,0.00071800000000000,0.20600000000000000,0.23900000000000000
92100.00000000000000000,-0.00006940000000000,-0.00006690000000000,-0.00006490000000000,-0.00000001740000000,0.00000009300000000,0.00006040000000000,0.00010500000000000,-0.00000665000000000,-0.00012800000000000,0.02070000000000000,0.00046700000000000,-0.02280000000000000,0.00002380000000000,0.00071100000000000,0.20700000000000000,0.24000000000000000
92200.00000000000000000,-0.00006920000000000,-0.00006680000000000,-0.00006470000000000,-0.00000001850000000,0.00000003890000000,0.00006050000000000,0.00010500000000000,-0.00000643000000000,-0.00012700000000000,0.02080000000000000,0.00046500000000000,-0.02290000000000000,0.00001190000000000,0.00068300000000000,0.20700000000000000,0.24000000000000000
92300.00000000000000000,-0.00006900000000000,-0.00006660000000000,-0.00006450000000000,-0.00000001870000000,-0.00000005060000000,0.00006050000000000,0.00010500000000000,-0.00000627000000000,-0.00012700000000000,0.02080000000000000,0.00046400000000000,-0.02290000000000000,-0.00000316000000000,0.00063300000000000,0.20700000000000000,0.24100000000000000
92400.00000000000000000,-0.00006900000000000,-0.00006650000000000,-0.00006440000000000,-0.00000001980000000,-0.00000009050000000,0.00006050000000000,0.00010500000000000,-0.00000615000000000,-0.00012700000000000,0.02090000000000000,0.00046200000000000,-0.02300000000000000,-0.00001290000000000,0.00061100000000000,0.20800000000000000,0.24100000000000000
92500.00000000000000000,-0.00006870000000000,-0.00006630000000000,-0.00006420000000000,-0.00000002130000000,-0.00000013900000000,0.00006050000000000,0.00010500000000000,-0.00000588000000000,-0.00012700000000000,0.02100000000000000,0.00046000000000000,-0.02310000000000000,-0.00002490000000000,0.00058400000000000,0.20800000000000000,0.24100000000000000
92600.00000000000000000,-0.00006870000000000,-0.00006630000000000,-0.00006410000000000,-0.00000002150000000,-0.00000014200000000,0.00006050000000000,0.00010500000000000,-0.00000586000000000,-0.00012700000000000,0.02110000000000000,0.00046000000000000,-0.02320000000000000,-0.00002710000000000,0.00058300000000000,0.20800000000000000,0.24200000000000000
92700.00000000000000000,-0.00006870000000000,-0.00006620000000000,-0.00006410000000000,-0.00000002200000000,-0.00000017100000000,0.00006050000000000,0.00010500000000000,-0.00000581000000000,-0.00012700000000000,0.02120000000000000,0.00046000000000000,-0.02320000000000000,-0.00003240000000000,0.00056600000000000,0.20900000000000000,0.24200000000000000
92800.00000000000000000,-0.00006890000000000,-0.00006640000000000,-0.00006430000000000,-0.00000002120000000,-0.00000014700000000,0.00006060000000000,0.00010500000000000,-0.00000599000000000,-0.00012700000000000,0.02120000000000000,0.00046100000000000,-0.02330000000000000,-0.00002560000000000,0.00058000000000000,0.20900000000000000,0.24300000000000000
92900.00000000000000000,-0.00006910000000000,-0.00006660000000000,-0.00006450000000000,-0.00000002050000000,-0.00000010200000000,0.00006060000000000,0.00010500000000000,-0.00000619000000000,-0.00012700000000000,0.02130000000000000,0.00046300000000000,-0.02340000000000000,-0.00001600000000000,0.00060500000000000,0.20900000000000000,0.24300000000000000
93000.00000000000000000,-0.00006950000000000,-0.00006700000000000,-0.00006490000000000,-0.00000001940000000,-0.00000001520000000,0.00006060000000000,0.00010500000000000,-0.00000654000000000,-0.00012800000000000,0.02140000000000000,0.00046600000000000,-0.02350000000000000,0.00000229000000000,0.00065400000000000,0.21000000000000000,0.24300000000000000
93100.00000000000000000,-0.00006980000000000,-0.00006730000000000,-0.00006520000000000,-0.00000001810000000,0.00000007760000000,0.00006060000000000,0.00010500000000000,-0.00000689000000000,-0.00012800000000000,0.02150000000000000,0.00047000000000000,-0.02360000000000000,0.00002170000000000,0.00070500000000000,0.21000000000000000,0.24400000000000000
93200.00000000000000000,-0.00007020000000000,-0.00006770000000000,-0.00006560000000000,-0.00000001650000000,0.00000014400000000,0.00006060000000000,0.00010500000000000,-0.00000724000000000,-0.00012900000000000,0.02150000000000000,0.00047300000000000,-0.02370000000000000,0.00003900000000000,0.00074200000000000,0.21000000000000000,0.24400000000000000
93300.00000000000000000,-0.00007050000000000,-0.00006800000000000,-0.00006600000000000,-0.00000001520000000,0.00000023400000000,0.00006060000000000,0.00010500000000000,-0.00000758000000000,-0.00012900000000000,0.02160000000000000,0.00047600000000000,-0.02380000000000000,0.00005770000000000,0.00079300000000000,0.21100000000000000,0.24500000000000000
93400.00000000000000000,-0.00007070000000000,-0.00006820000000000,-0.00006620000000000,-0.00000001470000000,0.00000028000000000,0.00006060000000000,0.00010500000000000,-0.00000776000000000,-0.00012900000000000,0.02170000000000000,0.00047800000000000,-0.02380000000000000,0.00006730000000000,0.00081900000000000,0.21100000000000000,0.24500000000000000
93500.00000000000000000,-0.00007090000000000,-0.00006830000000000,-0.00006630000000000,-0.00000001430000000,0.00000028900000000,0.00006070000000000,0.00010500000000000,-0.00000785000000000,-0.00012900000000000,0.02180000000000000,0.00047900000000000,-0.02390000000000000,0.00007090000000000,0.00082400000000000,0.21100000000000000,0.24500000000000000
93600.00000000000000000,-0.00007080000000000,-0.00006830000000000,-0.00006620000000000,-0.00000001500000000,0.00000026900000000,0.00006070000000000,0.00010500000000000,-0.00000777000000000,-0.00012900000000000,0.02180000000000000,0.00047800000000000,-0.02400000000000000,0.00006570000000000,0.00081200000000000,0.21100000000000000,0.24600000000000000
93700.00000000000000000,-0.00007070000000000,-0.00006820000000000,-0.00006610000000000,-0.00000001540000000,0.00000023300000000,0.00006070000000000,0.00010500000000000,-0.00000769000000000,-0.00012900000000000,0.02190000000000000,0.00047700000000000,-0.02410000000000000,0.00005860000000000,0.00079300000000000,0.21200000000000000,0.24600000000000000
93800.00000000000000000,-0.00007050000000000,-0.00006800000000000,-0.00006590000000000,-0.00000001670000000,0.00000017500000000,0.00006070000000000,0.00010500000000000,-0.00000744000000000,-0.00012900000000000,0.02200000000000000,0.00047500000000000,-0.02420000000000000,0.00004470000000000,0.00076000000000000,0.21200000000000000,0.24600000000000000
93900.00000000000000000,-0.00007040000000000,-0.00006780000000000,-0.00006570000000000,-0.00000001800000000,0.00000011600000000,0.00006070000000000,0.00010500000000000,-0.00000723000000000,-0.00012900000000000,0.02210000000000000,0.00047300000000000,-0.02420000000000000,0.00003100000000000,0.00072800000000000,0.21300000000000000,0.24700000000000000
94000.00000000000000000,-0.00007020000000000,-0.00006760000000000,-0.00006540000000000,-0.00000001920000000,0.00000004560000000,0.00006070000000000,0.00010500000000000,-0.00000702000000000,-0.00012900000000000,0.02220000000000000,0.00047100000000000,-0.02430000000000000,0.00001590000000000,0.00068900000000000,0.21300000000000000,0.24700000000000000
94100.00000000000000000,-0.00007010000000000,-0.00006750000000000,-0.00006530000000000,-0.00000001970000000,-0.00000001640000000,0.00006080000000000,0.00010500000000000,-0.00000688000000000,-0.00012800000000000,0.02230000000000000,0.00047000000000000,-0.02440000000000000,0.00000349000000000,0.00065600000000000,0.21300000000000000,0.24800000000000000
94200.00000000000000000,-0.00007000000000000,-0.00006740000000000,-0.00006520000000000,-0.00000002030000000,-0.00000005790000000,0.00006080000000000,0.00010500000000000,-0.00000675000000000,-0.00012800000000000,0.02230000000000000,0.00046900000000000,-0.02450000000000000,-0.00000559000000000,0.00063400000000000,0.21300000000000000,0.24800000000000000
94300.00000000000000000,-0.00006990000000000,-0.00006730000000000,-0.00006510000000000,-0.00000002120000000,-0.00000008150000000,0.00006080000000000,0.00010500000000000,-0.00000664000000000,-0.00012800000000000,0.02240000000000000,0.00046800000000000,-0.02450000000000000,-0.00001230000000000,0.00062200000000000,0.21400000000000000,0.24800000000000000
94400.00000000000000000,-0.00006990000000000,-0.00006730000000000,-0.00006510000000000,-0.00000002110000000,-0.00000010100000000,0.00006080000000000,0.00010500000000000,-0.00000663000000000,-0.00012800000000000,0.02250000000000000,0.00046800000000000,-0.02460000000000000,-0.00001580000000000,0.00061200000000000,0.21400000000000000,0.24900000000000000
94500.00000000000000000,-0.00006990000000000,-0.00006730000000000,-0.00006510000000000,-0.00000002140000000,-0.00000011200000000,0.00006080000000000,0.00010500000000000,-0.00000662000000000,-0.00012800000000000,0.02260000000000000,0.00046800000000000,-0.02470000000000000,-0.00001820000000000,0.00060600000000000,0.21400000000000000,0.24900000000000000
94600.00000000000000000,-0.00007000000000000,-0.00006740000000000,-0.00006510000000000,-0.00000002110000000,-0.00000010800000000,0.00006080000000000,0.00010500000000000,-0.00000668000000000,-0.00012800000000000,0.02270000000000000,0.00046900000000000,-0.02480000000000000,-0.00001640000000000,0.00060900000000000,0.21500000000000000,0.25000000000000000
94700.00000000000000000,-0.00007010000000000,-0.00006750000000000,-0.00006520000000000,-0.00000002090000000,-0.00000009190000000,0.00006090000000000,0.00010500000000000,-0.00000675000000000,-0.00012900000000000,0.02270000000000000,0.00046900000000000,-0.02490000000000000,-0.00001310000000000,0.00061800000000000,0.21500000000000000,0.25000000000000000
94800.00000000000000000,-0.00007020000000000,-0.00006760000000000,-0.00006540000000000,-0.00000002070000000,-0.00000004910000000,0.00006090000000000,0.00010600000000000,-0.00000689000000000,-0.00012900000000000,0.02280000000000000,0.00047100000000000,-0.02490000000000000,-0.00000471000000000,0.00064200000000000,0.21500000000000000,0.25000000000000000
94900.00000000000000000,-0.00007050000000000,-0.00006780000000000,-0.00006560000000000,-0.00000001990000000,-0.00000001560000000,0.00006090000000000,0.00010600000000000,-0.00000709000000000,-0.00012900000000000,0.02290000000000000,0.00047300000000000,-0.02500000000000000,0.00000415000000000,0.00066000000000000,0.21600000000000000,0.25100000000000000
95000.00000000000000000,-0.00007070000000000,-0.00006810000000000,-0.00006590000000000,-0.00000001900000000,0.00000003970000000,0.00006090000000000,0.00010600000000000,-0.00000735000000000,-0.00012900000000000,0.02300000000000000,0.00047500000000000,-0.02510000000000000,0.00001690000000000,0.00069000000000000,0.21600000000000000,0.25100000000000000
95100.00000000000000000,-0.00007100000000000,-0.00006840000000000,-0.00006610000000000,-0.00000001830000000,0.00000010700000000,0.00006090000000000,0.00010600000000000,-0.00000759000000000,-0.00013000000000000,0.02310000000000000,0.00047700000000000,-0.02520000000000000,0.00003140000000000,0.00072700000000000,0.21600000000000000,0.25100000000000000
95200.00000000000000000,-0.00007130000000000,-0.00006860000000000,-0.00006640000000000,-0.00000001730000000,0.00000016900000000,0.00006090000000000,0.00010600000000000,-0.00000786000000000,-0.00013000000000000,0.02310000000000000,0.00048000000000000,-0.02530000000000000,0.00004590000000000,0.00076200000000000,0.21700000000000000,0.25200000000000000
95300.00000000000000000,-0.00007160000000000,-0.00006890000000000,-0.00006670000000000,-0.00000001620000000,0.00000022000000000,0.00006090000000000,0.00010600000000000,-0.00000812000000000,-0.00013000000000000,0.02320000000000000,0.00048200000000000,-0.02540000000000000,0.00005870000000000,0.00079100000000000,0.21700000000000000,0.25200000000000000
95400.00000000000000000,-0.00007170000000000,-0.00006910000000000,-0.00006680000000000,-0.00000001560000000,0.00000025800000000,0.00006100000000000,0.00010600000000000,-0.00000828000000000,-0.00013000000000000,0.02330000000000000,0.00048400000000000,-0.02550000000000000,0.00006730000000000,0.00081200000000000,0.21700000000000000,0.25300000000000000
95500.00000000000000000,-0.00007180000000000,-0.00006920000000000,-0.00006690000000000,-0.00000001570000000,0.00000027000000000,0.00006100000000000,0.00010600000000000,-0.00000836000000000,-0.00013000000000000,0.02340000000000000,0.00048400000000000,-0.02560000000000000,0.00006980000000000,0.00081800000000000,0.21800000000000000,0.25300000000000000
95600.00000000000000000,-0.00007180000000000,-0.00006910000000000,-0.00006690000000000,-0.00000001590000000,0.00000025000000000,0.00006100000000000,0.00010600000000000,-0.00000833000000000,-0.00013000000000000,0.02350000000000000,0.00048400000000000,-0.02560000000000000,0.00006580000000000,0.00080700000000000,0.21800000000000000,0.25300000000000000
95700.00000000000000000,-0.00007170000000000,-0.00006900000000000,-0.00006680000000000,-0.00000001660000000,0.00000021900000000,0.00006100000000000,0.00010600000000000,-0.00000821000000000,-0.00013000000000000,0.02350000000000000,0.00048300000000000,-0.02570000000000000,0.00005790000000000,0.00079100000000000,0.21800000000000000,0.25400000000000000
95800.00000000000000000,-0.00007160000000000,-0.00006890000000000,-0.00006660000000000,-0.00000001760000000,0.00000015500000000,0.00006100000000000,0.00010600000000000,-0.00000803000000000,-0.00013000000000000,0.02360000000000000,0.00048100000000000,-0.02580000000000000,0.00004370000000000,0.00075600000000000,0.21900000000000000,0.25400000000000000
95900.00000000000000000,-0.00007140000000000,-0.00006870000000000,-0.00006640000000000,-0.00000001870000000,0.00000007690000000,0.00006100000000000,0.00010600000000000,-0.00000778000000000,-0.00013000000000000,0.02370000000000000,0.00047900000000000,-0.02590000000000000,0.00002670000000000,0.00071300000000000,0.21900000000000000,0.25500000000000000
96000.00000000000000000,-0.00007120000000000,-0.00006840000000000,-0.00006610000000000,-0.00000001990000000,0.00000000915000000,0.00006110000000000,0.00010600000000000,-0.00000752000000000,-0.00013000000000000,0.02380000000000000,0.00047700000000000,-0.02600000000000000,0.00001030000000000,0.00067600000000000,0.21900000000000000,0.25500000000000000
96100.00000000000000000,-0.00007090000000000,-0.00006820000000000,-0.00006590000000000,-0.00000002120000000,-0.00000005850000000,0.00006110000000000,0.00010600000000000,-0.00000729000000000,-0.00013000000000000,0.02390000000000000,0.00047500000000000,-0.02600000000000000,-0.00000568000000000,0.00063900000000000,0.22000000000000000,0.25500000000000000
96200.00000000000000000,-0.00007080000000000,-0.00006810000000000,-0.00006570000000000,-0.00000002200000000,-0.00000011300000000,0.00006110000000000,0.00010600000000000,-0.00000708000000000,-0.00012900000000000,0.02400000000000000,0.00047300000000000,-0.02610000000000000,-0.00001800000000000,0.00060900000000000,0.22000000000000000,0.25600000000000000
96300.00000000000000000,-0.00007070000000000,-0.00006800000000000,-0.00006560000000000,-0.00000002210000000,-0.00000014600000000,0.00006110000000000,0.00010600000000000,-0.00000702000000000,-0.00012900000000000,0.02400000000000000,0.00047300000000000,-0.02620000000000000,-0.00002430000000000,0.00059300000000000,0.22000000000000000,0.25600000000000000
96400.00000000000000000,-0.00007080000000000,-0.00006810000000000,-0.00006560000000000,-0.00000002200000000,-0.00000015300000000,0.00006110000000000,0.00010600000000000,-0.00000705000000000,-0.00012900000000000,0.02410000000000000,0.00047300000000000,-0.02630000000000000,-0.00002570000000000,0.00059000000000000,0.22100000000000000,0.25700000000000000
96500.00000000000000000,-0.00007090000000000,-0.00006810000000000,-0.00006570000000000,-0.00000002210000000,-0.00000013500000000,0.00006110000000000,0.00010600000000000,-0.00000710000000000,-0.00012900000000000,0.02420000000000000,0.00047300000000000,-0.02640000000000000,-0.00002230000000000,0.00060000000000000,0.22100000000000000,0.25700000000000000
96600.00000000000000000,-0.00007100000000000,-0.00006830000000000,-0.00006580000000000,-0.00000002160000000,-0.00000010400000000,0.00006110000000000,0.00010600000000000,-0.00000723000000000,-0.00013000000000000,0.02430000000000000,0.00047500000000000,-0.02640000000000000,-0.00001520000000000,0.00061700000000000,0.22100000000000000,0.25700000000000000
96700.00000000000000000,-0.00007130000000000,-0.00006850000000000,-0.00006610000000000,-0.00000002050000000,-0.00000006040000000,0.00006120000000000,0.00010600000000000,-0.00000747000000000,-0.00013000000000000,0.02440000000000000,0.00047700000000000,-0.02650000000000000,-0.00000374000000000,0.00064200000000000,0.22200000000000000,0.25800000000000000
96800.00000000000000000,-0.00007150000000000,-0.00006870000000000,-0.00006630000000000,-0.00000001960000000,-0.00000000331000000,0.00006120000000000,0.00010600000000000,-0.00000769000000000,-0.00013000000000000,0.02450000000000000,0.00047900000000000,-0.02660000000000000,0.00000967000000000,0.00067400000000000,0.22200000000000000,0.25800000000000000
96900.00000000000000000,-0.00007180000000000,-0.00006900000000000,-0.00006660000000000,-0.00000001900000000,0.00000005820000000,0.00006120000000000,0.00010600000000000,-0.00000795000000000,-0.00013000000000000,0.02450000000000000,0.00048100000000000,-0.02670000000000000,0.00002360000000000,0.00070700000000000,0.22200000000000000,0.25800000000000000
97000.00000000000000000,-0.00007210000000000,-0.00006930000000000,-0.00006690000000000,-0.00000001810000000,0.00000011500000000,0.00006120000000000,0.00010600000000000,-0.00000822000000000,-0.00013100000000000,0.02460000000000000,0.00048400000000000,-0.02680000000000000,0.00003720000000000,0.00073800000000000,0.22300000000000000,0.25900000000000000
97100.00000000000000000,-0.00007230000000000,-0.00006950000000000,-0.00006710000000000,-0.00000001740000000,0.00000017200000000,0.00006120000000000,0.00010600000000000,-0.00000843000000000,-0.00013100000000000,0.02470000000000000,0.00048600000000000,-0.02690000000000000,0.00005010000000000,0.00076900000000000,0.22300000000000000,0.25900000000000000
97200.00000000000000000,-0.00007250000000000,-0.00006970000000000,-0.00006730000000000,-0.00000001700000000,0.00000021700000000,0.00006120000000000,0.00010600000000000,-0.00000862000000000,-0.00013100000000000,0.02480000000000000,0.00048700000000000,-0.02700000000000000,0.00006020000000000,0.00079400000000000,0.22300000000000000,0.26000000000000000
97300.00000000000000000,-0.00007270000000000,-0.00006990000000000,-0.00006750000000000,-0.00000001640000000,0.00000023900000000,0.00006130000000000,0.00010600000000000,-0.00000879000000000,-0.00013100000000000,0.02490000000000000,0.00048900000000000,-0.02710000000000000,0.00006680000000000,0.00080600000000000,0.22400000000000000,0.26000000000000000
97400.00000000000000000,-0.00007280000000000,-0.00007000000000000,-0.00006760000000000,-0.00000001630000000,0.00000025200000000,0.00006130000000000,0.00010600000000000,-0.00000886000000000,-0.00013200000000000,0.02490000000000000,0.00049000000000000,-0.02720000000000000,0.00006990000000000,0.00081400000000000,0.22400000000000000,0.26000000000000000
97500.00000000000000000,-0.00007280000000000,-0.00007000000000000,-0.00006760000000000,-0.00000001680000000,0.00000024900000000,0.00006130000000000,0.00010600000000000,-0.00000887000000000,-0.00013200000000000,0.02500000000000000,0.00049000000000000,-0.02720000000000000,0.00006820000000000,0.00081200000000000,0.22400000000000000,0.26100000000000000
97600.00000000000000000,-0.00007270000000000,-0.00006990000000000,-0.00006750000000000,-0.00000001720000000,0.00000021300000000,0.00006130000000000,0.00010600000000000,-0.00000877000000000,-0.00013100000000000,0.02510000000000000,0.00048900000000000,-0.02730000000000000,0.00006060000000000,0.00079200000000000,0.22500000000000000,0.26100000000000000
97700.00000000000000000,-0.00007260000000000,-0.00006980000000000,-0.00006730000000000,-0.00000001780000000,0.00000016500000000,0.00006130000000000,0.00010600000000000,-0.00000860000000000,-0.00013100000000000,0.02520000000000000,0.00048700000000000,-0.02740000000000000,0.00004960000000000,0.00076600000000000,0.22500000000000000,0.26100000000000000
97800.00000000000000000,-0.00007240000000000,-0.00006960000000000,-0.00006710000000000,-0.00000001870000000,0.00000010800000000,0.00006130000000000,0.00010600000000000,-0.00000840000000000,-0.00013100000000000,0.02530000000000000,0.00048600000000000,-0.02750000000000000,0.00003560000000000,0.00073600000000000,0.22500000000000000,0.26200000000000000
97900.00000000000000000,-0.00007220000000000,-0.00006940000000000,-0.00006690000000000,-0.00000001970000000,0.00000003420000000,0.00006130000000000,0.00010600000000000,-0.00000817000000000,-0.00013100000000000,0.02540000000000000,0.00048400000000000,-0.02750000000000000,0.00001890000000000,0.00069600000000000,0.22600000000000000,0.26200000000000000
98000.00000000000000000,-0.00007200000000000,-0.00006920000000000,-0.00006670000000000,-0.00000002060000000,-0.00000003560000000,0.00006140000000000,0.00010600000000000,-0.00000793000000000,-0.00013100000000000,0.02540000000000000,0.00048100000000000,-0.02760000000000000,0.00000273000000000,0.00065900000000000,0.22600000000000000,0.26300000000000000
98100.00000000000000000,-0.00007190000000000,-0.00006900000000000,-0.00006650000000000,-0.00000002150000000,-0.00000009360000000,0.00006140000000000,0.00010600000000000,-0.00000772000000000,-0.00013100000000000,0.02550000000000000,0.00048000000000000,-0.02770000000000000,-0.00001150000000000,0.00062700000000000,0.22600000000000000,0.26300000000000000
98200.00000000000000000,-0.00007170000000000,-0.00006880000000000,-0.00006630000000000,-0.00000002240000000,-0.00000014100000000,0.00006140000000000,0.00010600000000000,-0.00000755000000000,-0.00013000000000000,0.02560000000000000,0.00047800000000000,-0.02780000000000000,-0.00002280000000000,0.00060100000000000,0.22700000000000000,0.26300000000000000
98300.00000000000000000,-0.00007170000000000,-0.00006880000000000,-0.00006630000000000,-0.00000002260000000,-0.00000016400000000,0.00006140000000000,0.00010600000000000,-0.00000751000000000,-0.00013000000000000,0.02570000000000000,0.00047800000000000,-0.02790000000000000,-0.00002810000000000,0.00058900000000000,0.22700000000000000,0.26400000000000000
98400.00000000000000000,-0.00007180000000000,-0.00006890000000000,-0.00006630000000000,-0.00000002250000000,-0.00000016500000000,0.00006140000000000,0.00010600000000000,-0.00000757000000000,-0.00013100000000000,0.02580000000000000,0.00047800000000000,-0.02790000000000000,-0.00002780000000000,0.00059000000000000,0.22700000000000000,0.26400000000000000
98500.00000000000000000,-0.00007190000000000,-0.00006900000000000,-0.00006640000000000,-0.00000002210000000,-0.00000014100000000,0.00006140000000000,0.00010700000000000,-0.00000769000000000,-0.00013100000000000,0.02590000000000000,0.00047900000000000,-0.02800000000000000,-0.00002180000000000,0.00060300000000000,0.22800000000000000,0.26500000000000000
98600.00000000000000000,-0.00007210000000000,-0.00006920000000000,-0.00006660000000000,-0.00000002150000000,-0.00000009400000000,0.00006150000000000,0.00010700000000000,-0.00000787000000000,-0.00013100000000000,0.02590000000000000,0.00048100000000000,-0.02810000000000000,-0.00001100000000000,0.00062900000000000,0.22800000000000000,0.26500000000000000
98700.00000000000000000,-0.00007240000000000,-0.00006950000000000,-0.00006690000000000,-0.00000002060000000,-0.00000003260000000,0.00006150000000000,0.00010700000000000,-0.00000815000000000,-0.00013100000000000,0.02600000000000000,0.00048400000000000,-0.02820000000000000,0.00000406000000000,0.00066300000000000,0.22800000000000000,0.26500000000000000
98800.00000000000000000,-0.00007270000000000,-0.00006980000000000,-0.00006730000000000,-0.00000001950000000,0.00000003610000000,0.00006150000000000,0.00010700000000000,-0.00000846000000000,-0.00013200000000000,0.02610000000000000,0.00048700000000000,-0.02830000000000000,0.00002110000000000,0.00070000000000000,0.22900000000000000,0.26600000000000000
98900.00000000000000000,-0.00007300000000000,-0.00007010000000000,-0.00006760000000000,-0.00000001860000000,0.00000011100000000,0.00006150000000000,0.00010700000000000,-0.00000876000000000,-0.00013200000000000,0.02620000000000000,0.00048900000000000,-0.02840000000000000,0.00003870000000000,0.00074200000000000,0.22900000000000000,0.26600000000000000
99000.00000000000000000,-0.00007330000000000,-0.00007040000000000,-0.00006790000000000,-0.00000001780000000,0.00000017300000000,0.00006150000000000,0.00010700000000000,-0.00000904000000000,-0.00013200000000000,0.02630000000000000,0.00049200000000000,-0.02850000000000000,0.00005410000000000,0.00077500000000000,0.22900000000000000,0.26600000000000000
99100.00000000000000000,-0.00007360000000000,-0.00007060000000000,-0.00006810000000000,-0.00000001700000000,0.00000022200000000,0.00006150000000000,0.00010700000000000,-0.00000924000000000,-0.00013200000000000,0.02640000000000000,0.00049400000000000,-0.02860000000000000,0.00006630000000000,0.00080200000000000,0.22900000000000000,0.26700000000000000
99200.00000000000000000,-0.00007370000000000,-0.00007070000000000,-0.00006820000000000,-0.00000001690000000,0.00000025600000000,0.00006150000000000,0.00010700000000000,-0.00000937000000000,-0.00013300000000000,0.02640000000000000,0.00049500000000000,-0.02870000000000000,0.00007370000000000,0.00082000000000000,0.23000000000000000,0.26700000000000000
99300.00000000000000000,-0.00007380000000000,-0.00007080000000000,-0.00006830000000000,-0.00000001680000000,0.00000026400000000,0.00006160000000000,0.00010700000000000,-0.00000943000000000,-0.00013300000000000,0.02650000000000000,0.00049600000000000,-0.02880000000000000,0.00007580000000000,0.00082500000000000,0.23000000000000000,0.26800000000000000
99400.00000000000000000,-0.00007380000000000,-0.00007080000000000,-0.00006830000000000,-0.00000001680000000,0.00000024700000000,0.00006160000000000,0.00010700000000000,-0.00000941000000000,-0.00013300000000000,0.02660000000000000,0.00049600000000000,-0.02880000000000000,0.00007260000000000,0.00081500000000000,0.23000000000000000,0.26800000000000000
99500.00000000000000000,-0.00007370000000000,-0.00007070000000000,-0.00006820000000000,-0.00000001750000000,0.00000021600000000,0.00006160000000000,0.00010700000000000,-0.00000930000000000,-0.00013300000000000,0.02670000000000000,0.00049500000000000,-0.02890000000000000,0.00006480000000000,0.00079900000000000,0.23100000000000000,0.26800000000000000
99600.00000000000000000,-0.00007360000000000,-0.00007060000000000,-0.00006800000000000,-0.00000001850000000,0.00000016900000000,0.00006160000000000,0.00010700000000000,-0.00000912000000000,-0.00013200000000000,0.02680000000000000,0.00049300000000000,-0.02900000000000000,0.00005260000000000,0.00077300000000000,0.23100000000000000,0.26900000000000000
99700.00000000000000000,-0.00007340000000000,-0.00007040000000000,-0.00006780000000000,-0.00000001910000000,0.00000009980000000,0.00006160000000000,0.00010700000000000,-0.00000891000000000,-0.00013200000000000,0.02690000000000000,0.00049100000000000,-0.02910000000000000,0.00003690000000000,0.00073500000000000,0.23100000000000000,0.26900000000000000
99800.00000000000000000,-0.00007320000000000,-0.00007020000000000,-0.00006760000000000,-0.00000002010000000,0.00000003280000000,0.00006160000000000,0.00010700000000000,-0.00000872000000000,-0.00013200000000000,0.02690000000000000,0.00048900000000000,-0.02920000000000000,0.00002050000000000,0.00070000000000000,0.23200000000000000,0.27000000000000000
99900.00000000000000000,-0.00007300000000000,-0.00007000000000000,-0.00006740000000000,-0.00000002100000000,-0.00000003370000000,0.00006160000000000,0.00010700000000000,-0.00000849000000000,-0.00013200000000000,0.02700000000000000,0.00048700000000000,-0.02920000000000000,0.00000433000000000,0.00066500000000000,0.23200000000000000,0.27000000000000000
100000.00000000000000000,-0.00007290000000000,-0.00006980000000000,-0.00006720000000000,-0.00000002170000000,-0.00000009450000000,0.00006170000000000,0.00010700000000000,-0.00000828000000000,-0.00013200000000000,0.02710000000000000,0.00048500000000000,-0.02930000000000000,-0.00000991000000000,0.00063200000000000,0.23200000000000000,0.27000000000000000
100000.00000000000000000,-0.00007280000000000,-0.00006970000000000,-0.00006700000000000,-0.00000002240000000,-0.00000013600000000,0.00006170000000000,0.00010700000000000,-0.00000815000000000,-0.00013200000000000,0.02720000000000000,0.00048400000000000,-0.02940000000000000,-0.00002050000000000,0.00061000000000000,0.23300000000000000,0.27100000000000000
100000.00000000000000000,-0.00007270000000000,-0.00006970000000000,-0.00006700000000000,-0.00000002280000000,-0.00000016200000000,0.00006170000000000,0.00010700000000000,-0.00000807000000000,-0.00013200000000000,0.02730000000000000,0.00048400000000000,-0.02950000000000000,-0.00002680000000000,0.00059600000000000,0.23300000000000000,0.27100000000000000
100000.00000000000000000,-0.00007280000000000,-0.00006970000000000,-0.00006700000000000,-0.00000002280000000,-0.00000016400000000,0.00006170000000000,0.00010700000000000,-0.00000810000000000,-0.00013200000000000,0.02740000000000000,0.00048400000000000,-0.02960000000000000,-0.00002720000000000,0.00059600000000000,0.23300000000000000,0.27100000000000000
100000.00000000000000000,-0.00007290000000000,-0.00006990000000000,-0.00006710000000000,-0.00000002230000000,-0.00000014700000000,0.00006170000000000,0.00010700000000000,-0.00000822000000000,-0.00013200000000000,0.02750000000000000,0.00048500000000000,-0.02970000000000000,-0.00002220000000000,0.00060600000000000,0.23400000000000000,0.27200000000000000
100000.00000000000000000,-0.00007310000000000,-0.00007000000000000,-0.00006730000000000,-0.00000002180000000,-0.00000010700000000,0.00006170000000000,0.00010700000000000,-0.00000838000000000,-0.00013200000000000,0.02760000000000000,0.00048700000000000,-0.02980000000000000,-0.00001230000000000,0.00062700000000000,0.23400000000000000,0.27200000000000000
101000.00000000000000000,-0.00007330000000000,-0.00007030000000000,-0.00006750000000000,-0.00000002110000000,-0.00000004430000000,0.00006180000000000,0.00010700000000000,-0.00000861000000000,-0.00013200000000000,0.02760000000000000,0.00048900000000000,-0.02980000000000000,0.00000249000000000,0.00066200000000000,0.23400000000000000,0.27300000000000000
101000.00000000000000000,-0.00007370000000000,-0.00007060000000000,-0.00006790000000000,-0.00000002010000000,0.00000002430000000,0.00006180000000000,0.00010700000000000,-0.00000893000000000,-0.00013300000000000,0.02770000000000000,0.00049200000000000,-0.02990000000000000,0.00001970000000000,0.00069900000000000,0.23500000000000000,0.27300000000000000
101000.00000000000000000,-0.00007400000000000,-0.00007090000000000,-0.00006820000000000,-0.00000001920000000,0.00000009490000000,0.00006180000000000,0.00010700000000000,-0.00000923000000000,-0.00013300000000000,0.02780000000000000,0.00049400000000000,-0.03000000000000000,0.00003750000000000,0.00073700000000000,0.23500000000000000,0.27300000000000000
101000.00000000000000000,-0.00007430000000000,-0.00007120000000000,-0.00006850000000000,-0.00000001800000000,0.00000015500000000,0.00006180000000000,0.00010700000000000,-0.00000951000000000,-0.00013300000000000,0.02790000000000000,0.00049700000000000,-0.03010000000000000,0.00005450000000000,0.00077100000000000,0.23500000000000000,0.27400000000000000
101000.00000000000000000,-0.00007450000000000,-0.00007140000000000,-0.00006870000000000,-0.00000001760000000,0.00000021600000000,0.00006180000000000,0.00010700000000000,-0.00000972000000000,-0.00013300000000000,0.02800000000000000,0.00049900000000000,-0.03020000000000000,0.00006810000000000,0.00080300000000000,0.23600000000000000,0.27400000000000000
101000.00000000000000000,-0.00007460000000000,-0.00007150000000000,-0.00006890000000000,-0.00000001720000000,0.00000024100000000,0.00006180000000000,0.00010700000000000,-0.00000986000000000,-0.00013400000000000,0.02800000000000000,0.00050000000000000,-0.03030000000000000,0.00007530000000000,0.00081600000000000,0.23600000000000000,0.27400000000000000
101000.00000000000000000,-0.00007480000000000,-0.00007170000000000,-0.00006900000000000,-0.00000001700000000,0.00000026000000000,0.00006180000000000,0.00010700000000000,-0.00000996000000000,-0.00013400000000000,0.02810000000000000,0.00050100000000000,-0.03040000000000000,0.00007960000000000,0.00082600000000000,0.23600000000000000,0.27500000000000000
101000.00000000000000000,-0.00007480000000000,-0.00007170000000000,-0.00006900000000000,-0.00000001740000000,0.00000026300000000,0.00006190000000000,0.00010700000000000,-0.00001000000000000,-0.00013400000000000,0.02820000000000000,0.00050200000000000,-0.03050000000000000,0.00007900000000000,0.00082900000000000,0.23700000000000000,0.27500000000000000
101000.00000000000000000,-0.00007480000000000,-0.00007170000000000,-0.00006900000000000,-0.00000001790000000,0.00000022600000000,0.00006190000000000,0.00010700000000000,-0.00000994000000000,-0.00013400000000000,0.02830000000000000,0.00050100000000000,-0.03060000000000000,0.00007060000000000,0.00080900000000000,0.23700000000000000,0.27600000000000000
101000.00000000000000000,-0.00007460000000000,-0.00007150000000000,-0.00006880000000000,-0.00000001830000000,0.00000016800000000,0.00006190000000000,0.00010700000000000,-0.00000974000000000,-0.00013400000000000,0.02840000000000000,0.00049900000000000,-0.03070000000000000,0.00005760000000000,0.00077800000000000,0.23700000000000000,0.27600000000000000
102000.00000000000000000,-0.00007450000000000,-0.00007130000000000,-0.00006860000000000,-0.00000001910000000,0.00000009860000000,0.00006190000000000,0.00010700000000000,-0.00000953000000000,-0.00013300000000000,0.02850000000000000,0.00049700000000000,-0.03070000000000000,0.00004100000000000,0.00074100000000000,0.23700000000000000,0.27600000000000000
102000.00000000000000000,-0.00007430000000000,-0.00007110000000000,-0.00006830000000000,-0.00000002020000000,0.00000003910000000,0.00006190000000000,0.00010700000000000,-0.00000930000000000,-0.00013300000000000,0.02860000000000000,0.00049500000000000,-0.03080000000000000,0.00002440000000000,0.00070900000000000,0.23800000000000000,0.27700000000000000
102000.00000000000000000,-0.00007400000000000,-0.00007090000000000,-0.00006810000000000,-0.00000002130000000,-0.00000003630000000,0.00006190000000000,0.00010700000000000,-0.00000903000000000,-0.00013300000000000,0.02870000000000000,0.00049300000000000,-0.03090000000000000,0.00000580000000000,0.00066900000000000,0.23800000000000000,0.27700000000000000
102000.00000000000000000,-0.00007390000000000,-0.00007070000000000,-0.00006790000000000,-0.00000002190000000,-0.00000009490000000,0.00006200000000000,0.00010700000000000,-0.00000884000000000,-0.00013300000000000,0.02880000000000000,0.00049100000000000,-0.03100000000000000,-0.00000890000000000,0.00063800000000000,0.23800000000000000,0.27800000000000000
102000.00000000000000000,-0.00007380000000000,-0.00007060000000000,-0.00006770000000000,-0.00000002240000000,-0.00000014000000000,0.00006200000000000,0.00010700000000000,-0.00000870000000000,-0.00013300000000000,0.02890000000000000,0.00049000000000000,-0.03110000000000000,-0.00001990000000000,0.00061400000000000,0.23900000000000000,0.27800000000000000
102000.00000000000000000,-0.00007370000000000,-0.00007050000000000,-0.00006760000000000,-0.00000002270000000,-0.00000017200000000,0.00006200000000000,0.00010700000000000,-0.00000861000000000,-0.00013300000000000,0.02890000000000000,0.00048900000000000,-0.03120000000000000,-0.00002700000000000,0.00059700000000000,0.23900000000000000,0.27800000000000000
102000.00000000000000000,-0.00007380000000000,-0.00007060000000000,-0.00006770000000000,-0.00000002270000000,-0.00000017200000000,0.00006200000000000,0.00010800000000000,-0.00000865000000000,-0.00013300000000000,0.02900000000000000,0.00049000000000000,-0.03120000000000000,-0.00002710000000000,0.00059800000000000,0.23900000000000000,0.27900000000000000
102000.00000000000000000,-0.00007390000000000,-0.00007070000000000,-0.00006780000000000,-0.00000002240000000,-0.00000014800000000,0.00006200000000000,0.00010800000000000,-0.00000877000000000,-0.00013300000000000,0.02910000000000000,0.00049100000000000,-0.03130000000000000,-0.00002100000000000,0.00061100000000000,0.24000000000000000,0.27900000000000000
102000.00000000000000000,-0.00007410000000000,-0.00007090000000000,-0.00006800000000000,-0.00000002190000000,-0.00000009600000000,0.00006200000000000,0.00010800000000000,-0.00000895000000000,-0.00013300000000000,0.02920000000000000,0.00049300000000000,-0.03140000000000000,-0.00000874000000000,0.00064000000000000,0.24000000000000000,0.27900000000000000
102000.00000000000000000,-0.00007440000000000,-0.00007120000000000,-0.00006830000000000,-0.00000002090000000,-0.00000003830000000,0.00006200000000000,0.00010800000000000,-0.00000921000000000,-0.00013300000000000,0.02930000000000000,0.00049500000000000,-0.03150000000000000,0.00000661000000000,0.00067100000000000,0.24000000000000000,0.28000000000000000
103000.00000000000000000,-0.00007470000000000,-0.00007150000000000,-0.00006860000000000,-0.00000002020000000,0.00000002750000000,0.00006210000000000,0.00010800000000000,-0.00000952000000000,-0.00013400000000000,0.02940000000000000,0.00049800000000000,-0.03160000000000000,0.00002380000000000,0.00070600000000000,0.24100000000000000,0.28000000000000000
103000.00000000000000000,-0.00007500000000000,-0.00007180000000000,-0.00006900000000000,-0.00000001930000000,0.00000010600000000,0.00006210000000000,0.00010800000000000,-0.00000984000000000,-0.00013400000000000,0.02950000000000000,0.00050100000000000,-0.03170000000000000,0.00004320000000000,0.00074900000000000,0.24100000000000000,0.28100000000000000
103000.00000000000000000,-0.00007530000000000,-0.00007210000000000,-0.00006920000000000,-0.00000001840000000,0.00000016800000000,0.00006210000000000,0.00010800000000000,-0.00001010000000000,-0.00013400000000000,0.02950000000000000,0.00050300000000000,-0.03180000000000000,0.00005970000000000,0.00078200000000000,0.24100000000000000,0.28100000000000000
103000.00000000000000000,-0.00007550000000000,-0.00007230000000000,-0.00006950000000000,-0.00000001810000000,0.00000021900000000,0.00006210000000000,0.00010800000000000,-0.00001030000000000,-0.00013500000000000,0.02960000000000000,0.00050500000000000,-0.03190000000000000,0.00007250000000000,0.00080900000000000,0.24200000000000000,0.28100000000000000
103000.00000000000000000,-0.00007570000000000,-0.00007240000000000,-0.00006960000000000,-0.00000001770000000,0.00000025500000000,0.00006210000000000,0.00010800000000000,-0.00001050000000000,-0.00013500000000000,0.02970000000000000,0.00050700000000000,-0.03200000000000000,0.00008120000000000,0.00082800000000000,0.24200000000000000,0.28200000000000000
103000.00000000000000000,-0.00007580000000000,-0.00007250000000000,-0.00006970000000000,-0.00000001770000000,0.00000026600000000,0.00006210000000000,0.00010800000000000,-0.00001050000000000,-0.00013500000000000,0.02980000000000000,0.00050700000000000,-0.03210000000000000,0.00008400000000000,0.00083400000000000,0.24200000000000000,0.28200000000000000
103000.00000000000000000,-0.00007580000000000,-0.00007250000000000,-0.00006970000000000,-0.00000001780000000,0.00000024600000000,0.00006220000000000,0.00010800000000000,-0.00001050000000000,-0.00013500000000000,0.02990000000000000,0.00050700000000000,-0.03220000000000000,0.00008010000000000,0.00082400000000000,0.24300000000000000,0.28200000000000000
103000.00000000000000000,-0.00007570000000000,-0.00007240000000000,-0.00006960000000000,-0.00000001820000000,0.00000021100000000,0.00006220000000000,0.00010800000000000,-0.00001040000000000,-0.00013500000000000,0.03000000000000000,0.00050600000000000,-0.03230000000000000,0.00007120000000000,0.00080500000000000,0.24300000000000000,0.28300000000000000
103000.00000000000000000,-0.00007560000000000,-0.00007230000000000,-0.00006940000000000,-0.00000001920000000,0.00000016200000000,0.00006220000000000,0.00010800000000000,-0.00001020000000000,-0.00013500000000000,0.03010000000000000,0.00050400000000000,-0.03240000000000000,0.00005790000000000,0.00077900000000000,0.24300000000000000,0.28300000000000000
103000.00000000000000000,-0.00007540000000000,-0.00007210000000000,-0.00006920000000000,-0.00000001970000000,0.00000009070000000,0.00006220000000000,0.00010800000000000,-0.00000999000000000,-0.00013500000000000,0.03020000000000000,0.00050200000000000,-0.03240000000000000,0.00004050000000000,0.00074100000000000,0.24400000000000000,0.28400000000000000
104000.00000000000000000,-0.00007520000000000,-0.00007190000000000,-0.00006900000000000,-0.00000002060000000,0.00000002250000000,0.00006220000000000,0.00010800000000000,-0.00000978000000000,-0.00013400000000000,0.03030000000000000,0.00050100000000000,-0.03250000000000000,0.00002300000000000,0.00070500000000000,0.24400000000000000,0.28400000000000000
104000.00000000000000000,-0.00007500000000000,-0.00007170000000000,-0.00006870000000000,-0.00000002170000000,-0.00000004690000000,0.00006220000000000,0.00010800000000000,-0.00000954000000000,-0.00013400000000000,0.03040000000000000,0.00049800000000000,-0.03260000000000000,0.00000505000000000,0.00066800000000000,0.24400000000000000,0.28400000000000000
104000.00000000000000000,-0.00007480000000000,-0.00007150000000000,-0.00006850000000000,-0.00000002190000000,-0.00000010200000000,0.00006220000000000,0.00010800000000000,-0.00000935000000000,-0.00013400000000000,0.03040000000000000,0.00049700000000000,-0.03270000000000000,-0.00000850000000000,0.00063900000000000,0.24500000000000000,0.28500000000000000
104000.00000000000000000,-0.00007470000000000,-0.00007140000000000,-0.00006840000000000,-0.00000002240000000,-0.00000014600000000,0.00006230000000000,0.00010800000000000,-0.00000922000000000,-0.00013400000000000,0.03050000000000000,0.00049600000000000,-0.03280000000000000,-0.00001850000000000,0.00061600000000000,0.24500000000000000,0.28500000000000000
104000.00000000000000000,-0.00007470000000000,-0.00007130000000000,-0.00006830000000000,-0.00000002260000000,-0.00000016500000000,0.00006230000000000,0.00010800000000000,-0.00000914000000000,-0.00013400000000000,0.03060000000000000,0.00049500000000000,-0.03290000000000000,-0.00002330000000000,0.00060600000000000,0.24500000000000000,0.28500000000000000
104000.00000000000000000,-0.00007470000000000,-0.00007140000000000,-0.00006830000000000,-0.00000002270000000,-0.00000017000000000,0.00006230000000000,0.00010800000000000,-0.00000915000000000,-0.00013400000000000,0.03070000000000000,0.00049500000000000,-0.03300000000000000,-0.00002480000000000,0.00060400000000000,0.24500000000000000,0.28600000000000000
104000.00000000000000000,-0.00007470000000000,-0.00007140000000000,-0.00006830000000000,-0.00000002290000000,-0.00000017400000000,0.00006230000000000,0.00010800000000000,-0.00000915000000000,-0.00013400000000000,0.03080000000000000,0.00049500000000000,-0.03300000000000000,-0.00002550000000000,0.00060200000000000,0.24600000000000000,0.28600000000000000
104000.00000000000000000,-0.00007480000000000,-0.00007150000000000,-0.00006840000000000,-0.00000002270000000,-0.00000017000000000,0.00006230000000000,0.00010800000000000,-0.00000921000000000,-0.00013400000000000,0.03090000000000000,0.00049600000000000,-0.03310000000000000,-0.00002370000000000,0.00060400000000000,0.24600000000000000,0.28700000000000000
104000.00000000000000000,-0.00007490000000000,-0.00007150000000000,-0.00006840000000000,-0.00000002250000000,-0.00000015500000000,0.00006230000000000,0.00010800000000000,-0.00000924000000000,-0.00013400000000000,0.03100000000000000,0.00049600000000000,-0.03320000000000000,-0.00002030000000000,0.00061300000000000,0.24600000000000000,0.28700000000000000
104000.00000000000000000,-0.00007500000000000,-0.00007160000000000,-0.00006850000000000,-0.00000002240000000,-0.00000013900000000,0.00006230000000000,0.00010800000000000,-0.00000931000000000,-0.00013400000000000,0.03110000000000000,0.00049700000000000,-0.03330000000000000,-0.00001590000000000,0.00062100000000000,0.24700000000000000,0.28700000000000000
105000.00000000000000000,-0.00007510000000000,-0.00007170000000000,-0.00006860000000000,-0.00000002220000000,-0.00000011000000000,0.00006240000000000,0.00010800000000000,-0.00000942000000000,-0.00013400000000000,0.03120000000000000,0.00049800000000000,-0.03340000000000000,-0.00000920000000000,0.00063800000000000,0.24700000000000000,0.28800000000000000
105000.00000000000000000,-0.00007520000000000,-0.00007180000000000,-0.00006880000000000,-0.00000002180000000,-0.00000008030000000,0.00006240000000000,0.00010800000000000,-0.00000954000000000,-0.00013400000000000,0.03120000000000000,0.00049900000000000,-0.03350000000000000,-0.00000144000000000,0.00065400000000000,0.24700000000000000,0.28800000000000000
105000.00000000000000000,-0.00007540000000000,-0.00007200000000000,-0.00006890000000000,-0.00000002160000000,-0.00000004890000000,0.00006240000000000,0.00010800000000000,-0.00000966000000000,-0.00013500000000000,0.03130000000000000,0.00050000000000000,-0.03360000000000000,0.00000686000000000,0.00067100000000000,0.24800000000000000,0.28800000000000000
105000.00000000000000000,-0.00007550000000000,-0.00007210000000000,-0.00006910000000000,-0.00000002130000000,-0.00000001750000000,0.00006240000000000,0.00010800000000000,-0.00000980000000000,-0.00013500000000000,0.03140000000000000,0.00050200000000000,-0.03370000000000000,0.00001530000000000,0.00068800000000000,0.24800000000000000,0.28900000000000000
105000.00000000000000000,-0.00007570000000000,-0.00007230000000000,-0.00006920000000000,-0.00000002120000000,0.00000001930000000,0.00006240000000000,0.00010800000000000,-0.00000994000000000,-0.00013500000000000,0.03150000000000000,0.00050300000000000,-0.03380000000000000,0.00002410000000000,0.00070700000000000,0.24800000000000000,0.28900000000000000
105000.00000000000000000,-0.00007580000000000,-0.00007240000000000,-0.00006940000000000,-0.00000002080000000,0.00000006090000000,0.00006240000000000,0.00010800000000000,-0.00001010000000000,-0.00013500000000000,0.03160000000000000,0.00050500000000000,-0.03390000000000000,0.00003440000000000,0.00073000000000000,0.24900000000000000,0.29000000000000000
105000.00000000000000000,-0.00007600000000000,-0.00007260000000000,-0.00006950000000000,-0.00000002050000000,0.00000009570000000,0.00006240000000000,0.00010800000000000,-0.00001030000000000,-0.00013500000000000,0.03170000000000000,0.00050600000000000,-0.03400000000000000,0.00004350000000000,0.00074800000000000,0.24900000000000000,0.29000000000000000
105000.00000000000000000,-0.00007620000000000,-0.00007280000000000,-0.00006970000000000,-0.00000002020000000,0.00000012900000000,0.00006250000000000,0.00010800000000000,-0.00001040000000000,-0.00013600000000000,0.03180000000000000,0.00050800000000000,-0.03410000000000000,0.00005250000000000,0.00076600000000000,0.24900000000000000,0.29000000000000000
105000.00000000000000000,-0.00007630000000000,-0.00007290000000000,-0.00006980000000000,-0.00000001980000000,0.00000016100000000,0.00006250000000000,0.00010800000000000,-0.00001050000000000,-0.00013600000000000,0.03190000000000000,0.00050900000000000,-0.03420000000000000,0.00006100000000000,0.00078400000000000,0.25000000000000000,0.29100000000000000
105000.00000000000000000,-0.00007650000000000,-0.00007300000000000,-0.00007000000000000,-0.00000001960000000,0.00000019400000000,0.00006250000000000,0.00010800000000000,-0.00001060000000000,-0.00013600000000000,0.03200000000000000,0.00051000000000000,-0.03430000000000000,0.00006910000000000,0.00080200000000000,0.25000000000000000,0.29100000000000000
106000.00000000000000000,-0.00007660000000000,-0.00007310000000000,-0.00007010000000000,-0.00000001960000000,0.00000021400000000,0.00006250000000000,0.00010800000000000,-0.00001070000000000,-0.00013600000000000,0.03210000000000000,0.00051100000000000,-0.03440000000000000,0.00007440000000000,0.00081200000000000,0.25000000000000000,0.29100000000000000
106000.00000000000000000,-0.00007670000000000,-0.00007320000000000,-0.00007010000000000,-0.00000001940000000,0.00000022900000000,0.00006250000000000,0.00010800000000000,-0.00001080000000000,-0.00013600000000000,0.03220000000000000,0.00051200000000000,-0.03450000000000000,0.00007840000000000,0.00082100000000000,0.25000000000000000,0.29200000000000000
106000.00000000000000000,-0.00007670000000000,-0.00007330000000000,-0.00007020000000000,-0.00000001960000000,0.00000024300000000,0.00006250000000000,0.00010800000000000,-0.00001080000000000,-0.00013600000000000,0.03220000000000000,0.00051200000000000,-0.03450000000000000,0.00008120000000000,0.00082800000000000,0.25100000000000000,0.29200000000000000
106000.00000000000000000,-0.00007680000000000,-0.00007330000000000,-0.00007020000000000,-0.00000001970000000,0.00000024100000000,0.00006260000000000,0.00010800000000000,-0.00001080000000000,-0.00013600000000000,0.03230000000000000,0.00051300000000000,-0.03460000000000000,0.00008130000000000,0.00082700000000000,0.25100000000000000,0.29200000000000000
106000.00000000000000000,-0.00007680000000000,-0.00007330000000000,-0.00007020000000000,-0.00000001970000000,0.00000024000000000,0.00006260000000000,0.00010900000000000,-0.00001080000000000,-0.00013600000000000,0.03240000000000000,0.00051300000000000,-0.03470000000000000,0.00008150000000000,0.00082700000000000,0.25100000000000000,0.29300000000000000
106000.00000000000000000,-0.00007680000000000,-0.00007330000000000,-0.00007020000000000,-0.00000001990000000,0.00000024500000000,0.00006260000000000,0.00010900000000000,-0.00001080000000000,-0.00013600000000000,0.03250000000000000,0.00051300000000000,-0.03480000000000000,0.00008230000000000,0.00082900000000000,0.25200000000000000,0.29300000000000000
106000.00000000000000000,-0.00007680000000000,-0.00007330000000000,-0.00007020000000000,-0.00000002010000000,0.00000024000000000,0.00006260000000000,0.00010900000000000,-0.00001080000000000,-0.00013600000000000,0.03260000000000000,0.00051300000000000,-0.03490000000000000,0.00008150000000000,0.00082700000000000,0.25200000000000000,0.29400000000000000
106000.00000000000000000,-0.00007680000000000,-0.00007330000000000,-0.00007020000000000,-0.00000002020000000,0.00000023600000000,0.00006260000000000,0.00010900000000000,-0.00001080000000000,-0.00013600000000000,0.03270000000000000,0.00051300000000000,-0.03500000000000000,0.00008050000000000,0.00082400000000000,0.25200000000000000,0.29400000000000000
106000.00000000000000000,-0.00007680000000000,-0.00007320000000000,-0.00007010000000000,-0.00000002060000000,0.00000022700000000,0.00006260000000000,0.00010900000000000,-0.00001070000000000,-0.00013600000000000,0.03280000000000000,0.00051200000000000,-0.03510000000000000,0.00007810000000000,0.00082000000000000,0.25300000000000000,0.29400000000000000
106000.00000000000000000,-0.00007670000000000,-0.00007320000000000,-0.00007010000000000,-0.00000002080000000,0.00000021300000000,0.00006260000000000,0.00010900000000000,-0.00001070000000000,-0.00013600000000000,0.03290000000000000,0.00051200000000000,-0.03520000000000000,0.00007480000000000,0.00081300000000000,0.25300000000000000,0.29500000000000000
107000.00000000000000000,-0.00007670000000000,-0.00007310000000000,-0.00007000000000000,-0.00000002100000000,0.00000019800000000,0.00006270000000000,0.00010900000000000,-0.00001060000000000,-0.00013600000000000,0.03300000000000000,0.00051100000000000,-0.03530000000000000,0.00007130000000000,0.00080500000000000,0.25300000000000000,0.29500000000000000
107000.00000000000000000,-0.00007660000000000,-0.00007310000000000,-0.00006990000000000,-0.00000002140000000,0.00000019000000000,0.00006270000000000,0.00010900000000000,-0.00001050000000000,-0.00013600000000000,0.03310000000000000,0.00051100000000000,-0.03540000000000000,0.00006870000000000,0.00080100000000000,0.25400000000000000,0.29500000000000000
107000.00000000000000000,-0.00007660000000000,-0.00007310000000000,-0.00006990000000000,-0.00000002160000000,0.00000018900000000,0.00006270000000000,0.00010900000000000,-0.00001050000000000,-0.00013600000000000,0.03320000000000000,0.00051100000000000,-0.03550000000000000,0.00006780000000000,0.00080100000000000,0.25400000000000000,0.29600000000000000
107000.00000000000000000,-0.00007660000000000,-0.00007300000000000,-0.00006990000000000,-0.00000002180000000,0.00000018800000000,0.00006270000000000,0.00010900000000000,-0.00001040000000000,-0.00013600000000000,0.03320000000000000,0.00051100000000000,-0.03560000000000000,0.00006760000000000,0.00080000000000000,0.25400000000000000,0.29600000000000000
107000.00000000000000000,-0.00007660000000000,-0.00007310000000000,-0.00006990000000000,-0.00000002200000000,0.00000019300000000,0.00006270000000000,0.00010900000000000,-0.00001050000000000,-0.00013600000000000,0.03330000000000000,0.00051100000000000,-0.03560000000000000,0.00006880000000000,0.00080200000000000,0.25400000000000000,0.29600000000000000
107000.00000000000000000,-0.00007670000000000,-0.00007310000000000,-0.00006990000000000,-0.00000002200000000,0.00000020100000000,0.00006270000000000,0.00010900000000000,-0.00001050000000000,-0.00013600000000000,0.03340000000000000,0.00051100000000000,-0.03570000000000000,0.00007120000000000,0.00080700000000000,0.25500000000000000,0.29700000000000000
107000.00000000000000000,-0.00007670000000000,-0.00007310000000000,-0.00006990000000000,-0.00000002210000000,0.00000021000000000,0.00006270000000000,0.00010900000000000,-0.00001050000000000,-0.00013600000000000,0.03350000000000000,0.00051200000000000,-0.03580000000000000,0.00007360000000000,0.00081100000000000,0.25500000000000000,0.29700000000000000
107000.00000000000000000,-0.00007670000000000,-0.00007310000000000,-0.00006990000000000,-0.00000002220000000,0.00000022200000000,0.00006280000000000,0.00010900000000000,-0.00001050000000000,-0.00013600000000000,0.03360000000000000,0.00051200000000000,-0.03590000000000000,0.00007660000000000,0.00081800000000000,0.25500000000000000,0.29800000000000000
107000.00000000000000000,-0.00007680000000000,-0.00007320000000000,-0.00006990000000000,-0.00000002220000000,0.00000022700000000,0.00006280000000000,0.00010900000000000,-0.00001050000000000,-0.00013600000000000,0.03370000000000000,0.00051200000000000,-0.03600000000000000,0.00007820000000000,0.00082200000000000,0.25600000000000000,0.29800000000000000
107000.00000000000000000,-0.00007670000000000,-0.00007310000000000,-0.00006990000000000,-0.00000002240000000,0.00000022800000000,0.00006280000000000,0.00010900000000000,-0.00001040000000000,-0.00013600000000000,0.03380000000000000,0.00051200000000000,-0.03610000000000000,0.00007830000000000,0.00082200000000000,0.25600000000000000,0.29800000000000000
108000.00000000000000000,-0.00007670000000000,-0.00007310000000000,-0.00006990000000000,-0.00000002260000000,0.00000022300000000,0.00006280000000000,0.00010900000000000,-0.00001040000000000,-0.00013600000000000,0.03390000000000000,0.00051200000000000,-0.03620000000000000,0.00007750000000000,0.00081900000000000,0.25600000000000000,0.29900000000000000
108000.00000000000000000,-0.00007670000000000,-0.00007310000000000,-0.00006980000000000,-0.00000002250000000,0.00000022400000000,0.00006280000000000,0.00010900000000000,-0.00001040000000000,-0.00013600000000000,0.03400000000000000,0.00051200000000000,-0.03630000000000000,0.00007810000000000,0.00082000000000000,0.25700000000000000,0.29900000000000000
108000.00000000000000000,-0.00007680000000000,-0.00007310000000000,-0.00006980000000000,-0.00000002270000000,0.00000023400000000,0.00006280000000000,0.00010900000000000,-0.00001040000000000,-0.00013600000000000,0.03410000000000000,0.00051200000000000,-0.03640000000000000,0.00008040000000000,0.00082600000000000,0.25700000000000000,0.29900000000000000
108000.00000000000000000,-0.00007680000000000,-0.00007310000000000,-0.00006980000000000,-0.00000002290000000,0.00000023700000000,0.00006280000000000,0.00010900000000000,-0.00001040000000000,-0.00013600000000000,0.03420000000000000,0.00051200000000000,-0.03650000000000000,0.00008140000000000,0.00082700000000000,0.25700000000000000,0.30000000000000000
108000.00000000000000000,-0.00007680000000000,-0.00007310000000000,-0.00006980000000000,-0.00000002290000000,0.00000023400000000,0.00006290000000000,0.00010900000000000,-0.00001030000000000,-0.00013600000000000,0.03420000000000000,0.00051200000000000,-0.03660000000000000,0.00008110000000000,0.00082600000000000,0.25700000000000000,0.30000000000000000
108000.00000000000000000,-0.00007670000000000,-0.00007310000000000,-0.00006980000000000,-0.00000002310000000,0.00000023100000000,0.00006290000000000,0.00010900000000000,-0.00001030000000000,-0.00013600000000000,0.03430000000000000,0.00051200000000000,-0.03660000000000000,0.00008000000000000,0.00082500000000000,0.25800000000000000,0.30000000000000000
108000.00000000000000000,-0.00007670000000000,-0.00007300000000000,-0.00006970000000000,-0.00000002320000000,0.00000022200000000,0.00006290000000000,0.00010900000000000,-0.00001020000000000,-0.00013600000000000,0.03440000000000000,0.00051100000000000,-0.03670000000000000,0.00007840000000000,0.00082000000000000,0.25800000000000000,0.30100000000000000
108000.00000000000000000,-0.00007670000000000,-0.00007300000000000,-0.00006970000000000,-0.00000002340000000,0.00000022300000000,0.00006290000000000,0.00010900000000000,-0.00001020000000000,-0.00013600000000000,0.03450000000000000,0.00051100000000000,-0.03680000000000000,0.00007810000000000,0.00082000000000000,0.25800000000000000,0.30100000000000000
108000.00000000000000000,-0.00007670000000000,-0.00007300000000000,-0.00006960000000000,-0.00000002380000000,0.00000022200000000,0.00006290000000000,0.00010900000000000,-0.00001010000000000,-0.00013600000000000,0.03460000000000000,0.00051100000000000,-0.03690000000000000,0.00007700000000000,0.00082000000000000,0.25900000000000000,0.30100000000000000
108000.00000000000000000,-0.00007660000000000,-0.00007290000000000,-0.00006960000000000,-0.00000002400000000,0.00000020200000000,0.00006290000000000,0.00010900000000000,-0.00001010000000000,-0.00013600000000000,0.03470000000000000,0.00051000000000000,-0.03700000000000000,0.00007260000000000,0.00080900000000000,0.25900000000000000,0.30200000000000000
109000.00000000000000000,-0.00007650000000000,-0.00007280000000000,-0.00006940000000000,-0.00000002420000000,0.00000017500000000,0.00006290000000000,0.00010900000000000,-0.00000994000000000,-0.00013600000000000,0.03480000000000000,0.00051000000000000,-0.03710000000000000,0.00006570000000000,0.00079400000000000,0.25900000000000000,0.30200000000000000
109000.00000000000000000,-0.00007640000000000,-0.00007270000000000,-0.00006930000000000,-0.00000002470000000,0.00000014600000000,0.00006300000000000,0.00010900000000000,-0.00000977000000000,-0.00013600000000000,0.03490000000000000,0.00050800000000000,-0.03720000000000000,0.00005780000000000,0.00077900000000000,0.25900000000000000,0.30300000000000000
109000.00000000000000000,-0.00007620000000000,-0.00007250000000000,-0.00006910000000000,-0.00000002490000000,0.00000011500000000,0.00006300000000000,0.00010900000000000,-0.00000960000000000,-0.00013600000000000,0.03500000000000000,0.00050700000000000,-0.03730000000000000,0.00005050000000000,0.00076300000000000,0.26000000000000000,0.30300000000000000
109000.00000000000000000,-0.00007610000000000,-0.00007240000000000,-0.00006900000000000,-0.00000002510000000,0.00000008690000000,0.00006300000000000,0.00010900000000000,-0.00000947000000000,-0.00013600000000000,0.03510000000000000,0.00050600000000000,-0.03740000000000000,0.00004400000000000,0.00074900000000000,0.26000000000000000,0.30300000000000000
109000.00000000000000000,-0.00007600000000000,-0.00007230000000000,-0.00006880000000000,-0.00000002530000000,0.00000004510000000,0.00006300000000000,0.00010900000000000,-0.00000928000000000,-0.00013500000000000,0.03520000000000000,0.00050400000000000,-0.03740000000000000,0.00003430000000000,0.00072800000000000,0.26000000000000000,0.30400000000000000
109000.00000000000000000,-0.00007570000000000,-0.00007200000000000,-0.00006850000000000,-0.00000002520000000,-0.00000001750000000,0.00006300000000000,0.00010900000000000,-0.00000903000000000,-0.00013500000000000,0.03520000000000000,0.00050200000000000,-0.03750000000000000,0.00001960000000000,0.00069400000000000,0.26100000000000000,0.30400000000000000
109000.00000000000000000,-0.00007550000000000,-0.00007180000000000,-0.00006830000000000,-0.00000002610000000,-0.00000008740000000,0.00006300000000000,0.00010900000000000,-0.00000877000000000,-0.00013500000000000,0.03530000000000000,0.00050100000000000,-0.03760000000000000,0.00000248000000000,0.00065600000000000,0.26100000000000000,0.30400000000000000
109000.00000000000000000,-0.00007520000000000,-0.00007150000000000,-0.00006790000000000,-0.00000002730000000,-0.00000013900000000,0.00006300000000000,0.00010900000000000,-0.00000843000000000,-0.00013500000000000,0.03530000000000000,0.00049600000000000,-0.03750000000000000,-0.00001040000000000,0.00062800000000000,0.26100000000000000,0.30400000000000000
109000.00000000000000000,-0.00007480000000000,-0.00007110000000000,-0.00006750000000000,-0.00000002650000000,-0.00000015100000000,0.00006300000000000,0.00010900000000000,-0.00000801000000000,-0.00013400000000000,0.03520000000000000,0.00049200000000000,-0.03750000000000000,-0.00001170000000000,0.00062300000000000,0.26100000000000000,0.30400000000000000
109000.00000000000000000,-0.00007480000000000,-0.00007100000000000,-0.00006740000000000,-0.00000002340000000,-0.00000013600000000,0.00006300000000000,0.00010900000000000,-0.00000796000000000,-0.00013400000000000,0.03510000000000000,0.00049400000000000,-0.03740000000000000,-0.00000441000000000,0.00063200000000000,0.26100000000000000,0.30400000000000000
110000.00000000000000000,-0.00007480000000000,-0.00007100000000000,-0.00006740000000000,-0.00000002150000000,-0.00000015300000000,0.00006300000000000,0.00010900000000000,-0.00000797000000000,-0.00013400000000000,0.03510000000000000,0.00049300000000000,-0.03730000000000000,-0.00000474000000000,0.00062200000000000,0.26100000000000000,0.30400000000000000
110000.00000000000000000,-0.00007450000000000,-0.00007070000000000,-0.00006700000000000,-0.00000002270000000,-0.00000015200000000,0.00006300000000000,0.00010900000000000,-0.00000765000000000,-0.00013400000000000,0.03500000000000000,0.00049000000000000,-0.03730000000000000,-0.00000465000000000,0.00062000000000000,0.26100000000000000,0.30500000000000000
110000.00000000000000000,-0.00007460000000000,-0.00007080000000000,-0.00006710000000000,-0.00000002310000000,-0.00000009880000000,0.00006300000000000,0.00010900000000000,-0.00000770000000000,-0.00013400000000000,0.03510000000000000,0.00049100000000000,-0.03730000000000000,0.00000748000000000,0.00064700000000000,0.26100000000000000,0.30500000000000000
110000.00000000000000000,-0.00007500000000000,-0.00007120000000000,-0.00006750000000000,-0.00000002250000000,-0.00000001220000000,0.00006300000000000,0.00010900000000000,-0.00000809000000000,-0.00013400000000000,0.03510000000000000,0.00049400000000000,-0.03730000000000000,0.00002840000000000,0.00069300000000000,0.26200000000000000,0.30500000000000000
110000.00000000000000000,-0.00007540000000000,-0.00007150000000000,-0.00006790000000000,-0.00000002230000000,0.00000006720000000,0.00006310000000000,0.00010900000000000,-0.00000846000000000,-0.00013500000000000,0.03510000000000000,0.00049700000000000,-0.03740000000000000,0.00004720000000000,0.00073500000000000,0.26200000000000000,0.30500000000000000
110000.00000000000000000,-0.00007560000000000,-0.00007170000000000,-0.00006810000000000,-0.00000002230000000,0.00000010700000000,0.00006310000000000,0.00010900000000000,-0.00000864000000000,-0.00013500000000000,0.03520000000000000,0.00049900000000000,-0.03750000000000000,0.00005630000000000,0.00075500000000000,0.26200000000000000,0.30600000000000000
110000.00000000000000000,-0.00007570000000000,-0.00007180000000000,-0.00006820000000000,-0.00000002250000000,0.00000013700000000,0.00006310000000000,0.00010900000000000,-0.00000874000000000,-0.00013500000000000,0.03530000000000000,0.00050000000000000,-0.03750000000000000,0.00006330000000000,0.00077100000000000,0.26200000000000000,0.30600000000000000
110000.00000000000000000,-0.00007580000000000,-0.00007190000000000,-0.00006830000000000,-0.00000002260000000,0.00000017100000000,0.00006310000000000,0.00010900000000000,-0.00000885000000000,-0.00013500000000000,0.03530000000000000,0.00050100000000000,-0.03760000000000000,0.00007120000000000,0.00079100000000000,0.26300000000000000,0.30600000000000000
110000.00000000000000000,-0.00007580000000000,-0.00007190000000000,-0.00006830000000000,-0.00000002280000000,0.00000016700000000,0.00006310000000000,0.00010900000000000,-0.00000882000000000,-0.00013500000000000,0.03540000000000000,0.00050100000000000,-0.03770000000000000,0.00007060000000000,0.00078800000000000,0.26300000000000000,0.30600000000000000
110000.00000000000000000,-0.00007560000000000,-0.00007170000000000,-0.00006810000000000,-0.00000002310000000,0.00000011700000000,0.00006310000000000,0.00011000000000000,-0.00000861000000000,-0.00013500000000000,0.03550000000000000,0.00049900000000000,-0.03780000000000000,0.00005860000000000,0.00076100000000000,0.26300000000000000,0.30700000000000000
111000.00000000000000000,-0.00007540000000000,-0.00007150000000000,-0.00006780000000000,-0.00000002330000000,0.00000004830000000,0.00006310000000000,0.00011000000000000,-0.00000832000000000,-0.00013500000000000,0.03560000000000000,0.00049700000000000,-0.03780000000000000,0.00004180000000000,0.00072400000000000,0.26300000000000000,0.30700000000000000
111000.00000000000000000,-0.00007510000000000,-0.00007130000000000,-0.00006750000000000,-0.00000002340000000,-0.00000001210000000,0.00006310000000000,0.00011000000000000,-0.00000807000000000,-0.00013500000000000,0.03570000000000000,0.00049500000000000,-0.03790000000000000,0.00002770000000000,0.00069200000000000,0.26400000000000000,0.30700000000000000
111000.00000000000000000,-0.00007500000000000,-0.00007110000000000,-0.00006730000000000,-0.00000002360000000,-0.00000005650000000,0.00006320000000000,0.00011000000000000,-0.00000789000000000,-0.00013400000000000,0.03580000000000000,0.00049300000000000,-0.03800000000000000,0.00001730000000000,0.00067000000000000,0.26400000000000000,0.30800000000000000
111000.00000000000000000,-0.00007480000000000,-0.00007090000000000,-0.00006710000000000,-0.00000002380000000,-0.00000011000000000,0.00006320000000000,0.00011000000000000,-0.00000767000000000,-0.00013400000000000,0.03590000000000000,0.00049200000000000,-0.03810000000000000,0.00000446000000000,0.00064200000000000,0.26400000000000000,0.30800000000000000
111000.00000000000000000,-0.00007460000000000,-0.00007070000000000,-0.00006690000000000,-0.00000002400000000,-0.00000016500000000,0.00006320000000000,0.00011000000000000,-0.00000743000000000,-0.00013400000000000,0.03600000000000000,0.00049000000000000,-0.03820000000000000,-0.00000858000000000,0.00061300000000000,0.26500000000000000,0.30900000000000000
111000.00000000000000000,-0.00007450000000000,-0.00007060000000000,-0.00006680000000000,-0.00000002430000000,-0.00000017600000000,0.00006320000000000,0.00011000000000000,-0.00000734000000000,-0.00013400000000000,0.03610000000000000,0.00048900000000000,-0.03830000000000000,-0.00001160000000000,0.00060700000000000,0.26500000000000000,0.30900000000000000
111000.00000000000000000,-0.00007460000000000,-0.00007070000000000,-0.00006690000000000,-0.00000002430000000,-0.00000014300000000,0.00006320000000000,0.00011000000000000,-0.00000741000000000,-0.00013400000000000,0.03620000000000000,0.00049000000000000,-0.03840000000000000,-0.00000407000000000,0.00062400000000000,0.26500000000000000,0.30900000000000000
111000.00000000000000000,-0.00007480000000000,-0.00007080000000000,-0.00006700000000000,-0.00000002420000000,-0.00000010000000000,0.00006320000000000,0.00011000000000000,-0.00000752000000000,-0.00013400000000000,0.03630000000000000,0.00049100000000000,-0.03850000000000000,0.00000624000000000,0.00064700000000000,0.26600000000000000,0.31000000000000000
111000.00000000000000000,-0.00007490000000000,-0.00007090000000000,-0.00006710000000000,-0.00000002410000000,-0.00000005940000000,0.00006320000000000,0.00011000000000000,-0.00000764000000000,-0.00013400000000000,0.03630000000000000,0.00049200000000000,-0.03860000000000000,0.00001600000000000,0.00066700000000000,0.26600000000000000,0.31000000000000000
111000.00000000000000000,-0.00007510000000000,-0.00007110000000000,-0.00006730000000000,-0.00000002400000000,-0.00000001120000000,0.00006330000000000,0.00011000000000000,-0.00000780000000000,-0.00013500000000000,0.03640000000000000,0.00049400000000000,-0.03870000000000000,0.00002760000000000,0.00069200000000000,0.26600000000000000,0.31000000000000000
112000.00000000000000000,-0.00007530000000000,-0.00007130000000000,-0.00006750000000000,-0.00000002400000000,0.00000006010000000,0.00006330000000000,0.00011000000000000,-0.00000803000000000,-0.00013500000000000,0.03650000000000000,0.00049700000000000,-0.03880000000000000,0.00004490000000000,0.00073000000000000,0.26600000000000000,0.31100000000000000
112000.00000000000000000,-0.00007550000000000,-0.00007150000000000,-0.00006770000000000,-0.00000002410000000,0.00000012800000000,0.00006330000000000,0.00011000000000000,-0.00000821000000000,-0.00013500000000000,0.03660000000000000,0.00049900000000000,-0.03890000000000000,0.00006130000000000,0.00076700000000000,0.26700000000000000,0.31100000000000000
112000.00000000000000000,-0.00007560000000000,-0.00007160000000000,-0.00006770000000000,-0.00000002430000000,0.00000015500000000,0.00006330000000000,0.00011000000000000,-0.00000823000000000,-0.00013500000000000,0.03670000000000000,0.00049900000000000,-0.03890000000000000,0.00006790000000000,0.00078100000000000,0.26700000000000000,0.31100000000000000
112000.00000000000000000,-0.00007550000000000,-0.00007150000000000,-0.00006760000000000,-0.00000002440000000,0.00000014900000000,0.00006330000000000,0.00011000000000000,-0.00000813000000000,-0.00013500000000000,0.03680000000000000,0.00049800000000000,-0.03900000000000000,0.00006640000000000,0.00077700000000000,0.26700000000000000,0.31200000000000000
112000.00000000000000000,-0.00007540000000000,-0.00007140000000000,-0.00006760000000000,-0.00000002410000000,0.00000013200000000,0.00006330000000000,0.00011000000000000,-0.00000805000000000,-0.00013500000000000,0.03680000000000000,0.00049700000000000,-0.03910000000000000,0.00006250000000000,0.00076800000000000,0.26700000000000000,0.31200000000000000
112000.00000000000000000,-0.00007540000000000,-0.00007140000000000,-0.00006750000000000,-0.00000002360000000,0.00000010700000000,0.00006330000000000,0.00011000000000000,-0.00000798000000000,-0.00013500000000000,0.03680000000000000,0.00049700000000000,-0.03910000000000000,0.00005690000000000,0.00075400000000000,0.26800000000000000,0.31200000000000000
112000.00000000000000000,-0.00007520000000000,-0.00007120000000000,-0.00006730000000000,-0.00000002360000000,0.00000006440000000,0.00006330000000000,0.00011000000000000,-0.00000783000000000,-0.00013500000000000,0.03690000000000000,0.00049600000000000,-0.03910000000000000,0.00004690000000000,0.00073300000000000,0.26800000000000000,0.31200000000000000
112000.00000000000000000,-0.00007490000000000,-0.00007090000000000,-0.00006700000000000,-0.00000002420000000,-0.00000000690000000,0.00006330000000000,0.00011000000000000,-0.00000751000000000,-0.00013400000000000,0.03690000000000000,0.00049400000000000,-0.03910000000000000,0.00003000000000000,0.00069500000000000,0.26800000000000000,0.31300000000000000
112000.00000000000000000,-0.00007460000000000,-0.00007060000000000,-0.00006660000000000,-0.00000002470000000,-0.00000007610000000,0.00006340000000000,0.00011000000000000,-0.00000713000000000,-0.00013400000000000,0.03690000000000000,0.00049000000000000,-0.03910000000000000,0.00001350000000000,0.00065800000000000,0.26800000000000000,0.31300000000000000
112000.00000000000000000,-0.00007440000000000,-0.00007040000000000,-0.00006640000000000,-0.00000002460000000,-0.00000011200000000,0.00006340000000000,0.00011000000000000,-0.00000689000000000,-0.00013400000000000,0.03700000000000000,0.00048700000000000,-0.03920000000000000,0.00000515000000000,0.00064000000000000,0.26800000000000000,0.31300000000000000
113000.00000000000000000,-0.00007430000000000,-0.00007030000000000,-0.00006630000000000,-0.00000002420000000,-0.00000012800000000,0.00006340000000000,0.00011000000000000,-0.00000680000000000,-0.00013400000000000,0.03700000000000000,0.00048600000000000,-0.03920000000000000,0.00000168000000000,0.00063200000000000,0.26900000000000000,0.31300000000000000
113000.00000000000000000,-0.00007430000000000,-0.00007020000000000,-0.00006620000000000,-0.00000002370000000,-0.00000014400000000,0.00006340000000000,0.00011000000000000,-0.00000674000000000,-0.00013400000000000,0.03710000000000000,0.00048600000000000,-0.03930000000000000,-0.00000181000000000,0.00062300000000000,0.26900000000000000,0.31400000000000000
113000.00000000000000000,-0.00007430000000000,-0.00007020000000000,-0.00006620000000000,-0.00000002370000000,-0.00000014500000000,0.00006340000000000,0.00011000000000000,-0.00000672000000000,-0.00013400000000000,0.03710000000000000,0.00048600000000000,-0.03930000000000000,-0.00000252000000000,0.00062200000000000,0.26900000000000000,0.31400000000000000
113000.00000000000000000,-0.00007440000000000,-0.00007030000000000,-0.00006630000000000,-0.00000002390000000,-0.00000011800000000,0.00006340000000000,0.00011000000000000,-0.00000680000000000,-0.00013400000000000,0.03720000000000000,0.00048800000000000,-0.03940000000000000,0.00000436000000000,0.00063600000000000,0.26900000000000000,0.31400000000000000
113000.00000000000000000,-0.00007450000000000,-0.00007040000000000,-0.00006640000000000,-0.00000002410000000,-0.00000006100000000,0.00006340000000000,0.00011000000000000,-0.00000693000000000,-0.00013400000000000,0.03730000000000000,0.00048900000000000,-0.03950000000000000,0.00001820000000000,0.00066600000000000,0.27000000000000000,0.31500000000000000
113000.00000000000000000,-0.00007470000000000,-0.00007060000000000,-0.00006660000000000,-0.00000002430000000,-0.00000000244000000,0.00006340000000000,0.00011000000000000,-0.00000706000000000,-0.00013400000000000,0.03740000000000000,0.00049100000000000,-0.03960000000000000,0.00003250000000000,0.00069700000000000,0.27000000000000000,0.31500000000000000
113000.00000000000000000,-0.00007480000000000,-0.00007070000000000,-0.00006670000000000,-0.00000002430000000,0.00000003740000000,0.00006340000000000,0.00011000000000000,-0.00000716000000000,-0.00013400000000000,0.03750000000000000,0.00049100000000000,-0.03970000000000000,0.00004220000000000,0.00071700000000000,0.27000000000000000,0.31500000000000000
113000.00000000000000000,-0.00007490000000000,-0.00007080000000000,-0.00006680000000000,-0.00000002420000000,0.00000007480000000,0.00006350000000000,0.00011000000000000,-0.00000726000000000,-0.00013400000000000,0.03760000000000000,0.00049200000000000,-0.03980000000000000,0.00005130000000000,0.00073600000000000,0.27100000000000000,0.31600000000000000
113000.00000000000000000,-0.00007510000000000,-0.00007090000000000,-0.00006690000000000,-0.00000002400000000,0.00000011600000000,0.00006350000000000,0.00011000000000000,-0.00000739000000000,-0.00013500000000000,0.03770000000000000,0.00049400000000000,-0.03990000000000000,0.00006150000000000,0.00075800000000000,0.27100000000000000,0.31600000000000000
113000.00000000000000000,-0.00007520000000000,-0.00007100000000000,-0.00006700000000000,-0.00000002380000000,0.00000013600000000,0.00006350000000000,0.00011000000000000,-0.00000745000000000,-0.00013500000000000,0.03770000000000000,0.00049500000000000,-0.04000000000000000,0.00006670000000000,0.00076800000000000,0.27100000000000000,0.31600000000000000
114000.00000000000000000,-0.00007510000000000,-0.00007090000000000,-0.00006690000000000,-0.00000002390000000,0.00000012100000000,0.00006350000000000,0.00011000000000000,-0.00000735000000000,-0.00013500000000000,0.03780000000000000,0.00049400000000000,-0.04010000000000000,0.00006300000000000,0.00076000000000000,0.27100000000000000,0.31700000000000000
114000.00000000000000000,-0.00007490000000000,-0.00007070000000000,-0.00006670000000000,-0.00000002410000000,0.00000008270000000,0.00006350000000000,0.00011000000000000,-0.00000714000000000,-0.00013400000000000,0.03790000000000000,0.00049300000000000,-0.04020000000000000,0.00005370000000000,0.00074000000000000,0.27200000000000000,0.31700000000000000
114000.00000000000000000,-0.00007470000000000,-0.00007050000000000,-0.00006650000000000,-0.00000002440000000,0.00000004170000000,0.00006350000000000,0.00011000000000000,-0.00000692000000000,-0.00013400000000000,0.03800000000000000,0.00049100000000000,-0.04030000000000000,0.00004370000000000,0.00071900000000000,0.27200000000000000,0.31700000000000000
114000.00000000000000000,-0.00007450000000000,-0.00007040000000000,-0.00006630000000000,-0.00000002440000000,0.00000000369000000,0.00006350000000000,0.00011000000000000,-0.00000672000000000,-0.00013400000000000,0.03810000000000000,0.00049000000000000,-0.04030000000000000,0.00003460000000000,0.00069900000000000,0.27200000000000000,0.31800000000000000
114000.00000000000000000,-0.00007430000000000,-0.00007010000000000,-0.00006600000000000,-0.00000002430000000,-0.00000004700000000,0.00006360000000000,0.00011000000000000,-0.00000647000000000,-0.00013400000000000,0.03820000000000000,0.00048700000000000,-0.04040000000000000,0.00002250000000000,0.00067300000000000,0.27300000000000000,0.31800000000000000
114000.00000000000000000,-0.00007410000000000,-0.00006990000000000,-0.00006580000000000,-0.00000002400000000,-0.00000010100000000,0.00006360000000000,0.00011000000000000,-0.00000624000000000,-0.00013400000000000,0.03830000000000000,0.00048500000000000,-0.04050000000000000,0.00000926000000000,0.00064400000000000,0.27300000000000000,0.31800000000000000
114000.00000000000000000,-0.00007400000000000,-0.00006990000000000,-0.00006570000000000,-0.00000002380000000,-0.00000013200000000,0.00006360000000000,0.00011000000000000,-0.00000614000000000,-0.00013400000000000,0.03840000000000000,0.00048500000000000,-0.04060000000000000,0.00000185000000000,0.00062800000000000,0.27300000000000000,0.31900000000000000
114000.00000000000000000,-0.00007400000000000,-0.00006980000000000,-0.00006570000000000,-0.00000002350000000,-0.00000013600000000,0.00006360000000000,0.00011000000000000,-0.00000611000000000,-0.00013400000000000,0.03850000000000000,0.00048500000000000,-0.04070000000000000,0.00000157000000000,0.00062600000000000,0.27300000000000000,0.31900000000000000
114000.00000000000000000,-0.00007400000000000,-0.00006980000000000,-0.00006560000000000,-0.00000002360000000,-0.00000012000000000,0.00006360000000000,0.00011000000000000,-0.00000609000000000,-0.00013400000000000,0.03860000000000000,0.00048500000000000,-0.04070000000000000,0.00000544000000000,0.00063400000000000,0.27400000000000000,0.31900000000000000
114000.00000000000000000,-0.00007400000000000,-0.00006980000000000,-0.00006560000000000,-0.00000002400000000,-0.00000010100000000,0.00006360000000000,0.00011000000000000,-0.00000603000000000,-0.00013400000000000,0.03860000000000000,0.00048500000000000,-0.04080000000000000,0.00001020000000000,0.00064400000000000,0.27400000000000000,0.32000000000000000
115000.00000000000000000,-0.00007400000000000,-0.00006980000000000,-0.00006550000000000,-0.00000002410000000,-0.00000007070000000,0.00006360000000000,0.00011000000000000,-0.00000600000000000,-0.00013400000000000,0.03860000000000000,0.00048500000000000,-0.04080000000000000,0.00001790000000000,0.00065900000000000,0.27400000000000000,0.32000000000000000
115000.00000000000000000,-0.00007410000000000,-0.00006990000000000,-0.00006560000000000,-0.00000002390000000,-0.00000001890000000,0.00006360000000000,0.00011000000000000,-0.00000611000000000,-0.00013400000000000,0.03870000000000000,0.00048500000000000,-0.04090000000000000,0.00003110000000000,0.00068600000000000,0.27400000000000000,0.32000000000000000
115000.00000000000000000,-0.00007430000000000,-0.00007010000000000,-0.00006590000000000,-0.00000002350000000,0.00000003560000000,0.00006360000000000,0.00011000000000000,-0.00000632000000000,-0.00013400000000000,0.03870000000000000,0.00048700000000000,-0.04090000000000000,0.00004500000000000,0.00071500000000000,0.27400000000000000,0.32000000000000000
115000.00000000000000000,-0.00007450000000000,-0.00007030000000000,-0.00006600000000000,-0.00000002290000000,0.00000006690000000,0.00006360000000000,0.00011000000000000,-0.00000652000000000,-0.00013400000000000,0.03870000000000000,0.00048900000000000,-0.04090000000000000,0.00005330000000000,0.00073000000000000,0.27500000000000000,0.32000000000000000
115000.00000000000000000,-0.00007460000000000,-0.00007030000000000,-0.00006610000000000,-0.00000002280000000,0.00000008260000000,0.00006360000000000,0.00011000000000000,-0.00000656000000000,-0.00013400000000000,0.03870000000000000,0.00049000000000000,-0.04090000000000000,0.00005720000000000,0.00073800000000000,0.27500000000000000,0.32100000000000000
115000.00000000000000000,-0.00007450000000000,-0.00007020000000000,-0.00006600000000000,-0.00000002300000000,0.00000008740000000,0.00006370000000000,0.00011100000000000,-0.00000645000000000,-0.00013400000000000,0.03870000000000000,0.00049000000000000,-0.04090000000000000,0.00005870000000000,0.00074000000000000,0.27500000000000000,0.32100000000000000
115000.00000000000000000,-0.00007440000000000,-0.00007010000000000,-0.00006580000000000,-0.00000002340000000,0.00000008360000000,0.00006370000000000,0.00011100000000000,-0.00000628000000000,-0.00013400000000000,0.03880000000000000,0.00048900000000000,-0.04100000000000000,0.00005810000000000,0.00073900000000000,0.27500000000000000,0.32100000000000000
115000.00000000000000000,-0.00007420000000000,-0.00006990000000000,-0.00006560000000000,-0.00000002350000000,0.00000005760000000,0.00006370000000000,0.00011100000000000,-0.00000611000000000,-0.00013400000000000,0.03880000000000000,0.00048700000000000,-0.04100000000000000,0.00005200000000000,0.00072500000000000,0.27500000000000000,0.32100000000000000
115000.00000000000000000,-0.00007400000000000,-0.00006970000000000,-0.00006540000000000,-0.00000002320000000,0.00000000806000000,0.00006370000000000,0.00011100000000000,-0.00000587000000000,-0.00013400000000000,0.03890000000000000,0.00048400000000000,-0.04110000000000000,0.00004010000000000,0.00069900000000000,0.27600000000000000,0.32100000000000000
115000.00000000000000000,-0.00007390000000000,-0.00006950000000000,-0.00006520000000000,-0.00000002280000000,-0.00000004300000000,0.00006370000000000,0.00011100000000000,-0.00000569000000000,-0.00013300000000000,0.03890000000000000,0.00048200000000000,-0.04110000000000000,0.00002780000000000,0.00067200000000000,0.27600000000000000,0.32200000000000000
116000.00000000000000000,-0.00007380000000000,-0.00006950000000000,-0.00006510000000000,-0.00000002250000000,-0.00000007840000000,0.00006370000000000,0.00011100000000000,-0.00000560000000000,-0.00013300000000000,0.03900000000000000,0.00048100000000000,-0.04120000000000000,0.00001920000000000,0.00065400000000000,0.27600000000000000,0.32200000000000000
116000.00000000000000000,-0.00007370000000000,-0.00006940000000000,-0.00006500000000000,-0.00000002250000000,-0.00000010700000000,0.00006370000000000,0.00011100000000000,-0.00000551000000000,-0.00013300000000000,0.03910000000000000,0.00048100000000000,-0.04120000000000000,0.00001220000000000,0.00063900000000000,0.27600000000000000,0.32200000000000000
116000.00000000000000000,-0.00007360000000000,-0.00006920000000000,-0.00006490000000000,-0.00000002280000000,-0.00000013300000000,0.00006370000000000,0.00011100000000000,-0.00000534000000000,-0.00013300000000000,0.03910000000000000,0.00048000000000000,-0.04130000000000000,0.00000549000000000,0.00062500000000000,0.27700000000000000,0.32300000000000000
116000.00000000000000000,-0.00007350000000000,-0.00006910000000000,-0.00006470000000000,-0.00000002320000000,-0.00000014500000000,0.00006370000000000,0.00011100000000000,-0.00000521000000000,-0.00013300000000000,0.03920000000000000,0.00047800000000000,-0.04140000000000000,0.00000220000000000,0.00061800000000000,0.27700000000000000,0.32300000000000000
116000.00000000000000000,-0.00007350000000000,-0.00006910000000000,-0.00006470000000000,-0.00000002350000000,-0.00000013100000000,0.00006380000000000,0.00011100000000000,-0.00000520000000000,-0.00013300000000000,0.03930000000000000,0.00047800000000000,-0.04150000000000000,0.00000588000000000,0.00062600000000000,0.27700000000000000,0.32300000000000000
116000.00000000000000000,-0.00007360000000000,-0.00006920000000000,-0.00006480000000000,-0.00000002360000000,-0.00000009310000000,0.00006380000000000,0.00011100000000000,-0.00000530000000000,-0.00013300000000000,0.03940000000000000,0.00047900000000000,-0.04160000000000000,0.00001510000000000,0.00064600000000000,0.27700000000000000,0.32400000000000000
116000.00000000000000000,-0.00007370000000000,-0.00006940000000000,-0.00006500000000000,-0.00000002350000000,-0.00000005470000000,0.00006380000000000,0.00011100000000000,-0.00000541000000000,-0.00013300000000000,0.03950000000000000,0.00048000000000000,-0.04160000000000000,0.00002460000000000,0.00066500000000000,0.27800000000000000,0.32400000000000000
116000.00000000000000000,-0.00007390000000000,-0.00006950000000000,-0.00006510000000000,-0.00000002340000000,-0.00000001950000000,0.00006380000000000,0.00011100000000000,-0.00000552000000000,-0.00013300000000000,0.03950000000000000,0.00048100000000000,-0.04170000000000000,0.00003330000000000,0.00068300000000000,0.27800000000000000,0.32400000000000000
116000.00000000000000000,-0.00007400000000000,-0.00006960000000000,-0.00006520000000000,-0.00000002340000000,0.00000001800000000,0.00006380000000000,0.00011100000000000,-0.00000564000000000,-0.00013400000000000,0.03960000000000000,0.00048300000000000,-0.04180000000000000,0.00004290000000000,0.00070200000000000,0.27800000000000000,0.32500000000000000
116000.00000000000000000,-0.00007410000000000,-0.00006970000000000,-0.00006530000000000,-0.00000002350000000,0.00000005850000000,0.00006380000000000,0.00011100000000000,-0.00000572000000000,-0.00013400000000000,0.03970000000000000,0.00048400000000000,-0.04190000000000000,0.00005310000000000,0.00072300000000000,0.27800000000000000,0.32500000000000000
117000.00000000000000000,-0.00007410000000000,-0.00006970000000000,-0.00006530000000000,-0.00000002390000000,0.00000008220000000,0.00006380000000000,0.00011100000000000,-0.00000573000000000,-0.00013400000000000,0.03980000000000000,0.00048500000000000,-0.04200000000000000,0.00005890000000000,0.00073600000000000,0.27900000000000000,0.32500000000000000
117000.00000000000000000,-0.00007410000000000,-0.00006970000000000,-0.00006520000000000,-0.00000002420000000,0.00000007850000000,0.00006390000000000,0.00011100000000000,-0.00000565000000000,-0.00013400000000000,0.03990000000000000,0.00048400000000000,-0.04210000000000000,0.00005780000000000,0.00073300000000000,0.27900000000000000,0.32600000000000000
117000.00000000000000000,-0.00007400000000000,-0.00006950000000000,-0.00006510000000000,-0.00000002420000000,0.00000005820000000,0.00006390000000000,0.00011100000000000,-0.00000552000000000,-0.00013400000000000,0.04000000000000000,0.00048300000000000,-0.04220000000000000,0.00005290000000000,0.00072300000000000,0.27900000000000000,0.32600000000000000
117000.00000000000000000,-0.00007390000000000,-0.00006950000000000,-0.00006500000000000,-0.00000002390000000,0.00000003430000000,0.00006390000000000,0.00011100000000000,-0.00000542000000000,-0.00013300000000000,0.04010000000000000,0.00048200000000000,-0.04230000000000000,0.00004710000000000,0.00071000000000000,0.28000000000000000,0.32600000000000000
117000.00000000000000000,-0.00007380000000000,-0.00006940000000000,-0.00006490000000000,-0.00000002350000000,0.00000000270000000,0.00006390000000000,0.00011100000000000,-0.00000530000000000,-0.00013300000000000,0.04020000000000000,0.00048100000000000,-0.04240000000000000,0.00003940000000000,0.00069400000000000,0.28000000000000000,0.32700000000000000
117000.00000000000000000,-0.00007370000000000,-0.00006920000000000,-0.00006470000000000,-0.00000002330000000,-0.00000004070000000,0.00006390000000000,0.00011100000000000,-0.00000512000000000,-0.00013300000000000,0.04030000000000000,0.00048000000000000,-0.04250000000000000,0.00002840000000000,0.00067100000000000,0.28000000000000000,0.32700000000000000
117000.00000000000000000,-0.00007350000000000,-0.00006900000000000,-0.00006450000000000,-0.00000002340000000,-0.00000008740000000,0.00006390000000000,0.00011100000000000,-0.00000491000000000,-0.00013300000000000,0.04040000000000000,0.00047800000000000,-0.04260000000000000,0.00001650000000000,0.00064700000000000,0.28100000000000000,0.32800000000000000
117000.00000000000000000,-0.00007330000000000,-0.00006890000000000,-0.00006430000000000,-0.00000002370000000,-0.00000012000000000,0.00006390000000000,0.00011100000000000,-0.00000472000000000,-0.00013300000000000,0.04050000000000000,0.00047700000000000,-0.04270000000000000,0.00000849000000000,0.00063000000000000,0.28100000000000000,0.32800000000000000
117000.00000000000000000,-0.00007330000000000,-0.00006880000000000,-0.00006420000000000,-0.00000002380000000,-0.00000012800000000,0.00006400000000000,0.00011100000000000,-0.00000462000000000,-0.00013300000000000,0.04070000000000000,0.00047600000000000,-0.04280000000000000,0.00000627000000000,0.00062500000000000,0.28100000000000000,0.32800000000000000
117000.00000000000000000,-0.00007330000000000,-0.00006880000000000,-0.00006420000000000,-0.00000002380000000,-0.00000012500000000,0.00006400000000000,0.00011100000000000,-0.00000458000000000,-0.00013300000000000,0.04080000000000000,0.00047600000000000,-0.04290000000000000,0.00000710000000000,0.00062700000000000,0.28200000000000000,0.32900000000000000
118000.00000000000000000,-0.00007330000000000,-0.00006880000000000,-0.00006420000000000,-0.00000002370000000,-0.00000011500000000,0.00006400000000000,0.00011100000000000,-0.00000459000000000,-0.00013300000000000,0.04090000000000000,0.00047600000000000,-0.04300000000000000,0.00000976000000000,0.00063200000000000,0.28200000000000000,0.32900000000000000
118000.00000000000000000,-0.00007340000000000,-0.00006890000000000,-0.00006430000000000,-0.00000002350000000,-0.00000008890000000,0.00006400000000000,0.00011100000000000,-0.00000467000000000,-0.00013300000000000,0.04100000000000000,0.00047700000000000,-0.04310000000000000,0.00001630000000000,0.00064500000000000,0.28200000000000000,0.32900000000000000
118000.00000000000000000,-0.00007350000000000,-0.00006900000000000,-0.00006440000000000,-0.00000002350000000,-0.00000004560000000,0.00006400000000000,0.00011100000000000,-0.00000481000000000,-0.00013300000000000,0.04110000000000000,0.00047800000000000,-0.04320000000000000,0.00002730000000000,0.00066700000000000,0.28300000000000000,0.33000000000000000
118000.00000000000000000,-0.00007370000000000,-0.00006920000000000,-0.00006460000000000,-0.00000002380000000,-0.00000000011200000,0.00006400000000000,0.00011100000000000,-0.00000494000000000,-0.00013300000000000,0.04110000000000000,0.00048000000000000,-0.04330000000000000,0.00003880000000000,0.00069100000000000,0.28300000000000000,0.33000000000000000
118000.00000000000000000,-0.00007380000000000,-0.00006920000000000,-0.00006470000000000,-0.00000002410000000,0.00000003340000000,0.00006400000000000,0.00011100000000000,-0.00000500000000000,-0.00013300000000000,0.04120000000000000,0.00048100000000000,-0.04340000000000000,0.00004720000000000,0.00070800000000000,0.28300000000000000,0.33000000000000000
118000.00000000000000000,-0.00007380000000000,-0.00006920000000000,-0.00006470000000000,-0.00000002450000000,0.00000005470000000,0.00006410000000000,0.00011100000000000,-0.00000501000000000,-0.00013300000000000,0.04130000000000000,0.00048100000000000,-0.04350000000000000,0.00005250000000000,0.00071800000000000,0.28300000000000000,0.33100000000000000
118000.00000000000000000,-0.00007380000000000,-0.00006920000000000,-0.00006470000000000,-0.00000002470000000,0.00000006910000000,0.00006410000000000,0.00011100000000000,-0.00000500000000000,-0.00013300000000000,0.04140000000000000,0.00048100000000000,-0.04360000000000000,0.00005610000000000,0.00072600000000000,0.28400000000000000,0.33100000000000000
118000.00000000000000000,-0.00007380000000000,-0.00006920000000000,-0.00006460000000000,-0.00000002450000000,0.00000007230000000,0.00006410000000000,0.00011100000000000,-0.00000498000000000,-0.00013300000000000,0.04150000000000000,0.00048100000000000,-0.04370000000000000,0.00005710000000000,0.00072800000000000,0.28400000000000000,0.33100000000000000
118000.00000000000000000,-0.00007380000000000,-0.00006920000000000,-0.00006460000000000,-0.00000002430000000,0.00000005540000000,0.00006410000000000,0.00011100000000000,-0.00000492000000000,-0.00013300000000000,0.04160000000000000,0.00048000000000000,-0.04370000000000000,0.00005290000000000,0.00071900000000000,0.28400000000000000,0.33200000000000000
118000.00000000000000000,-0.00007370000000000,-0.00006910000000000,-0.00006450000000000,-0.00000002420000000,0.00000002090000000,0.00006410000000000,0.00011100000000000,-0.00000479000000000,-0.00013300000000000,0.04170000000000000,0.00047900000000000,-0.04380000000000000,0.00004390000000000,0.00070100000000000,0.28400000000000000,0.33200000000000000
119000.00000000000000000,-0.00007350000000000,-0.00006890000000000,-0.00006430000000000,-0.00000002420000000,-0.00000001800000000,0.00006410000000000,0.00011100000000000,-0.00000461000000000,-0.00013300000000000,0.04170000000000000,0.00047800000000000,-0.04390000000000000,0.00003390000000000,0.00068100000000000,0.28500000000000000,0.33200000000000000
119000.00000000000000000,-0.00007330000000000,-0.00006870000000000,-0.00006410000000000,-0.00000002440000000,-0.00000005130000000,0.00006410000000000,0.00011100000000000,-0.00000441000000000,-0.00013300000000000,0.04180000000000000,0.00047700000000000,-0.04400000000000000,0.00002530000000000,0.00066300000000000,0.28500000000000000,0.33300000000000000
119000.00000000000000000,-0.00007320000000000,-0.00006860000000000,-0.00006390000000000,-0.00000002470000000,-0.00000008230000000,0.00006410000000000,0.00011100000000000,-0.00000420000000000,-0.00013300000000000,0.04190000000000000,0.00047500000000000,-0.04410000000000000,0.00001730000000000,0.00064700000000000,0.28500000000000000,0.33300000000000000
119000.00000000000000000,-0.00007300000000000,-0.00006840000000000,-0.00006370000000000,-0.00000002470000000,-0.00000011100000000,0.00006420000000000,0.00011100000000000,-0.00000400000000000,-0.00013300000000000,0.04200000000000000,0.00047400000000000,-0.04410000000000000,0.00001010000000000,0.00063300000000000,0.28500000000000000,0.33300000000000000
119000.00000000000000000,-0.00007290000000000,-0.00006830000000000,-0.00006360000000000,-0.00000002460000000,-0.00000012500000000,0.00006420000000000,0.00011100000000000,-0.00000389000000000,-0.00013300000000000,0.04210000000000000,0.00047300000000000,-0.04420000000000000,0.00000627000000000,0.00062500000000000,0.28600000000000000,0.33400000000000000
119000.00000000000000000,-0.00007290000000000,-0.00006830000000000,-0.00006360000000000,-0.00000002420000000,-0.00000011800000000,0.00006420000000000,0.00011100000000000,-0.00000392000000000,-0.00013300000000000,0.04210000000000000,0.00047300000000000,-0.04430000000000000,0.00000821000000000,0.00062900000000000,0.28600000000000000,0.33400000000000000
119000.00000000000000000,-0.00007310000000000,-0.00006840000000000,-0.00006370000000000,-0.00000002390000000,-0.00000009590000000,0.00006420000000000,0.00011100000000000,-0.00000403000000000,-0.00013300000000000,0.04220000000000000,0.00047500000000000,-0.04430000000000000,0.00001420000000000,0.00064000000000000,0.28600000000000000,0.33400000000000000
119000.00000000000000000,-0.00007320000000000,-0.00006850000000000,-0.00006380000000000,-0.00000002400000000,-0.00000006810000000,0.00006420000000000,0.00011100000000000,-0.00000412000000000,-0.00013300000000000,0.04230000000000000,0.00047600000000000,-0.04440000000000000,0.00002140000000000,0.00065400000000000,0.28600000000000000,0.33400000000000000
119000.00000000000000000,-0.00007320000000000,-0.00006860000000000,-0.00006390000000000,-0.00000002450000000,-0.00000003770000000,0.00006420000000000,0.00011200000000000,-0.00000416000000000,-0.00013300000000000,0.04230000000000000,0.00047600000000000,-0.04450000000000000,0.00002900000000000,0.00066900000000000,0.28700000000000000,0.33500000000000000
119000.00000000000000000,-0.00007330000000000,-0.00006860000000000,-0.00006390000000000,-0.00000002510000000,-0.00000000099800000,0.00006420000000000,0.00011200000000000,-0.00000419000000000,-0.00013300000000000,0.04240000000000000,0.00047600000000000,-0.04460000000000000,0.00003820000000000,0.00068700000000000,0.28700000000000000,0.33500000000000000
120000.00000000000000000,-0.00007330000000000,-0.00006870000000000,-0.00006390000000000,-0.00000002550000000,0.00000003660000000,0.00006420000000000,0.00011200000000000,-0.00000423000000000,-0.00013300000000000,0.04250000000000000,0.00047600000000000,-0.04460000000000000,0.00004770000000000,0.00070700000000000,0.28700000000000000,0.33500000000000000
120000.00000000000000000,-0.00007340000000000,-0.00006870000000000,-0.00006390000000000,-0.00000002550000000,0.00000005940000000,0.00006420000000000,0.00011200000000000,-0.00000424000000000,-0.00013300000000000,0.04250000000000000,0.00047600000000000,-0.04470000000000000,0.00005380000000000,0.00071800000000000,0.28700000000000000,0.33600000000000000
120000.00000000000000000,-0.00007340000000000,-0.00006870000000000,-0.00006390000000000,-0.00000002510000000,0.00000006230000000,0.00006430000000000,0.00011200000000000,-0.00000420000000000,-0.00013300000000000,0.04260000000000000,0.00047700000000000,-0.04480000000000000,0.00005480000000000,0.00072000000000000,0.28800000000000000,0.33600000000000000
120000.00000000000000000,-0.00007330000000000,-0.00006860000000000,-0.00006380000000000,-0.00000002470000000,0.00000005290000000,0.00006430000000000,0.00011200000000000,-0.00000413000000000,-0.00013300000000000,0.04270000000000000,0.00047700000000000,-0.04480000000000000,0.00005270000000000,0.00071500000000000,0.28800000000000000,0.33600000000000000
120000.00000000000000000,-0.00007320000000000,-0.00006850000000000,-0.00006380000000000,-0.00000002440000000,0.00000003650000000,0.00006430000000000,0.00011200000000000,-0.00000405000000000,-0.00013300000000000,0.04280000000000000,0.00047700000000000,-0.04490000000000000,0.00004870000000000,0.00070600000000000,0.28800000000000000,0.33600000000000000
120000.00000000000000000,-0.00007320000000000,-0.00006840000000000,-0.00006360000000000,-0.00000002430000000,0.00000001070000000,0.00006430000000000,0.00011200000000000,-0.00000393000000000,-0.00013300000000000,0.04290000000000000,0.00047600000000000,-0.04500000000000000,0.00004220000000000,0.00069300000000000,0.28800000000000000,0.33700000000000000
120000.00000000000000000,-0.00007300000000000,-0.00006830000000000,-0.00006350000000000,-0.00000002440000000,-0.00000002710000000,0.00006430000000000,0.00011200000000000,-0.00000377000000000,-0.00013300000000000,0.04290000000000000,0.00047400000000000,-0.04510000000000000,0.00003230000000000,0.00067300000000000,0.28900000000000000,0.33700000000000000
120000.00000000000000000,-0.00007290000000000,-0.00006810000000000,-0.00006330000000000,-0.00000002470000000,-0.00000006620000000,0.00006430000000000,0.00011200000000000,-0.00000359000000000,-0.00013300000000000,0.04300000000000000,0.00047200000000000,-0.04520000000000000,0.00002180000000000,0.00065300000000000,0.28900000000000000,0.33700000000000000
120000.00000000000000000,-0.00007270000000000,-0.00006800000000000,-0.00006310000000000,-0.00000002480000000,-0.00000009300000000,0.00006430000000000,0.00011200000000000,-0.00000342000000000,-0.00013200000000000,0.04310000000000000,0.00047100000000000,-0.04530000000000000,0.00001460000000000,0.00063900000000000,0.28900000000000000,0.33800000000000000
120000.00000000000000000,-0.00007260000000000,-0.00006790000000000,-0.00006300000000000,-0.00000002470000000,-0.00000010700000000,0.00006430000000000,0.00011200000000000,-0.00000329000000000,-0.00013200000000000,0.04320000000000000,0.00047000000000000,-0.04540000000000000,0.00001110000000000,0.00063200000000000,0.28900000000000000,0.33800000000000000
121000.00000000000000000,-0.00007260000000000,-0.00006780000000000,-0.00006290000000000,-0.00000002450000000,-0.00000011300000000,0.00006440000000000,0.00011200000000000,-0.00000322000000000,-0.00013200000000000,0.04330000000000000,0.00047000000000000,-0.04550000000000000,0.00000964000000000,0.00062900000000000,0.29000000000000000,0.33800000000000000
121000.00000000000000000,-0.00007260000000000,-0.00006780000000000,-0.00006290000000000,-0.00000002440000000,-0.00000011000000000,0.00006440000000000,0.00011200000000000,-0.00000321000000000,-0.00013200000000000,0.04340000000000000,0.00047000000000000,-0.04560000000000000,0.00001040000000000,0.00063000000000000,0.29000000000000000,0.33900000000000000
121000.00000000000000000,-0.00007270000000000,-0.00006790000000000,-0.00006300000000000,-0.00000002460000000,-0.00000009200000000,0.00006440000000000,0.00011200000000000,-0.00000327000000000,-0.00013200000000000,0.04350000000000000,0.00047100000000000,-0.04570000000000000,0.00001500000000000,0.00063900000000000,0.29000000000000000,0.33900000000000000
121000.00000000000000000,-0.00007280000000000,-0.00006800000000000,-0.00006310000000000,-0.00000002480000000,-0.00000005660000000,0.00006440000000000,0.00011200000000000,-0.00000337000000000,-0.00013300000000000,0.04360000000000000,0.00047200000000000,-0.04580000000000000,0.00002400000000000,0.00065700000000000,0.29100000000000000,0.33900000000000000
121000.00000000000000000,-0.00007290000000000,-0.00006810000000000,-0.00006320000000000,-0.00000002510000000,-0.00000001850000000,0.00006440000000000,0.00011200000000000,-0.00000346000000000,-0.00013300000000000,0.04370000000000000,0.00047300000000000,-0.04590000000000000,0.00003380000000000,0.00067700000000000,0.29100000000000000,0.34000000000000000
121000.00000000000000000,-0.00007300000000000,-0.00006820000000000,-0.00006330000000000,-0.00000002520000000,0.00000001110000000,0.00006440000000000,0.00011200000000000,-0.00000351000000000,-0.00013300000000000,0.04380000000000000,0.00047400000000000,-0.04600000000000000,0.00004150000000000,0.00069200000000000,0.29100000000000000,0.34000000000000000
121000.00000000000000000,-0.00007300000000000,-0.00006820000000000,-0.00006330000000000,-0.00000002540000000,0.00000003530000000,0.00006440000000000,0.00011200000000000,-0.00000354000000000,-0.00013300000000000,0.04390000000000000,0.00047500000000000,-0.04610000000000000,0.00004780000000000,0.00070400000000000,0.29100000000000000,0.34100000000000000
121000.00000000000000000,-0.00007310000000000,-0.00006830000000000,-0.00006340000000000,-0.00000002550000000,0.00000005530000000,0.00006450000000000,0.00011200000000000,-0.00000359000000000,-0.00013300000000000,0.04400000000000000,0.00047500000000000,-0.04620000000000000,0.00005310000000000,0.00071400000000000,0.29200000000000000,0.34100000000000000
121000.00000000000000000,-0.00007310000000000,-0.00006830000000000,-0.00006340000000000,-0.00000002570000000,0.00000006480000000,0.00006450000000000,0.00011200000000000,-0.00000360000000000,-0.00013300000000000,0.04410000000000000,0.00047500000000000,-0.04630000000000000,0.00005550000000000,0.00071900000000000,0.29200000000000000,0.34100000000000000
121000.00000000000000000,-0.00007310000000000,-0.00006820000000000,-0.00006330000000000,-0.00000002570000000,0.00000005690000000,0.00006450000000000,0.00011200000000000,-0.00000354000000000,-0.00013300000000000,0.04420000000000000,0.00047500000000000,-0.04640000000000000,0.00005330000000000,0.00071500000000000,0.29200000000000000,0.34200000000000000
122000.00000000000000000,-0.00007300000000000,-0.00006810000000000,-0.00006320000000000,-0.00000002550000000,0.00000003220000000,0.00006450000000000,0.00011200000000000,-0.00000342000000000,-0.00013300000000000,0.04430000000000000,0.00047400000000000,-0.04650000000000000,0.00004680000000000,0.00070200000000000,0.29300000000000000,0.34200000000000000
122000.00000000000000000,-0.00007290000000000,-0.00006800000000000,-0.00006310000000000,-0.00000002550000000,0.00000000249000000,0.00006450000000000,0.00011200000000000,-0.00000329000000000,-0.00013300000000000,0.04440000000000000,0.00047300000000000,-0.04660000000000000,0.00003900000000000,0.00068700000000000,0.29300000000000000,0.34200000000000000
122000.00000000000000000,-0.00007280000000000,-0.00006790000000000,-0.00006300000000000,-0.00000002550000000,-0.00000002560000000,0.00006450000000000,0.00011200000000000,-0.00000316000000000,-0.00013300000000000,0.04450000000000000,0.00047200000000000,-0.04670000000000000,0.00003150000000000,0.00067300000000000,0.29300000000000000,0.34300000000000000
122000.00000000000000000,-0.00007270000000000,-0.00006780000000000,-0.00006280000000000,-0.00000002550000000,-0.00000005580000000,0.00006450000000000,0.00011200000000000,-0.00000302000000000,-0.00013200000000000,0.04460000000000000,0.00047100000000000,-0.04680000000000000,0.00002350000000000,0.00065700000000000,0.29300000000000000,0.34300000000000000
122000.00000000000000000,-0.00007250000000000,-0.00006770000000000,-0.00006270000000000,-0.00000002550000000,-0.00000008480000000,0.00006460000000000,0.00011200000000000,-0.00000286000000000,-0.00013200000000000,0.04480000000000000,0.00047000000000000,-0.04690000000000000,0.00001580000000000,0.00064200000000000,0.29400000000000000,0.34300000000000000
122000.00000000000000000,-0.00007250000000000,-0.00006760000000000,-0.00006260000000000,-0.00000002550000000,-0.00000010200000000,0.00006460000000000,0.00011200000000000,-0.00000276000000000,-0.00013200000000000,0.04490000000000000,0.00046900000000000,-0.04700000000000000,0.00001110000000000,0.00063300000000000,0.29400000000000000,0.34400000000000000
122000.00000000000000000,-0.00007240000000000,-0.00006760000000000,-0.00006260000000000,-0.00000002550000000,-0.00000010200000000,0.00006460000000000,0.00011200000000000,-0.00000272000000000,-0.00013200000000000,0.04500000000000000,0.00046900000000000,-0.04710000000000000,0.00001110000000000,0.00063400000000000,0.29400000000000000,0.34400000000000000
122000.00000000000000000,-0.00007250000000000,-0.00006760000000000,-0.00006260000000000,-0.00000002560000000,-0.00000008830000000,0.00006460000000000,0.00011200000000000,-0.00000274000000000,-0.00013200000000000,0.04510000000000000,0.00046900000000000,-0.04720000000000000,0.00001460000000000,0.00064000000000000,0.29500000000000000,0.34400000000000000
122000.00000000000000000,-0.00007250000000000,-0.00006760000000000,-0.00006260000000000,-0.00000002570000000,-0.00000006860000000,0.00006460000000000,0.00011200000000000,-0.00000277000000000,-0.00013200000000000,0.04520000000000000,0.00047000000000000,-0.04730000000000000,0.00001980000000000,0.00065000000000000,0.29500000000000000,0.34500000000000000
122000.00000000000000000,-0.00007260000000000,-0.00006770000000000,-0.00006270000000000,-0.00000002580000000,-0.00000004340000000,0.00006460000000000,0.00011200000000000,-0.00000284000000000,-0.00013200000000000,0.04530000000000000,0.00047100000000000,-0.04740000000000000,0.00002640000000000,0.00066300000000000,0.29500000000000000,0.34500000000000000
123000.00000000000000000,-0.00007270000000000,-0.00006780000000000,-0.00006280000000000,-0.00000002590000000,-0.00000000956000000,0.00006460000000000,0.00011200000000000,-0.00000293000000000,-0.00013300000000000,0.04540000000000000,0.00047200000000000,-0.04750000000000000,0.00003540000000000,0.00068000000000000,0.29600000000000000,0.34500000000000000
123000.00000000000000000,-0.00007290000000000,-0.00006790000000000,-0.00006290000000000,-0.00000002600000000,0.00000002600000000,0.00006470000000000,0.00011200000000000,-0.00000303000000000,-0.00013300000000000,0.04550000000000000,0.00047300000000000,-0.04770000000000000,0.00004500000000000,0.00069800000000000,0.29600000000000000,0.34600000000000000
123000.00000000000000000,-0.00007290000000000,-0.00006800000000000,-0.00006300000000000,-0.00000002610000000,0.00000005170000000,0.00006470000000000,0.00011200000000000,-0.00000309000000000,-0.00013300000000000,0.04560000000000000,0.00047400000000000,-0.04780000000000000,0.00005190000000000,0.00071100000000000,0.29600000000000000,0.34600000000000000
123000.00000000000000000,-0.00007300000000000,-0.00006800000000000,-0.00006300000000000,-0.00000002620000000,0.00000006350000000,0.00006470000000000,0.00011200000000000,-0.00000309000000000,-0.00013300000000000,0.04580000000000000,0.00047400000000000,-0.04790000000000000,0.00005510000000000,0.00071700000000000,0.29700000000000000,0.34700000000000000
123000.00000000000000000,-0.00007290000000000,-0.00006800000000000,-0.00006300000000000,-0.00000002620000000,0.00000006390000000,0.00006470000000000,0.00011200000000000,-0.00000304000000000,-0.00013300000000000,0.04590000000000000,0.00047400000000000,-0.04800000000000000,0.00005530000000000,0.00071700000000000,0.29700000000000000,0.34700000000000000
123000.00000000000000000,-0.00007290000000000,-0.00006790000000000,-0.00006290000000000,-0.00000002620000000,0.00000005570000000,0.00006470000000000,0.00011200000000000,-0.00000296000000000,-0.00013300000000000,0.04600000000000000,0.00047300000000000,-0.04810000000000000,0.00005310000000000,0.00071300000000000,0.29700000000000000,0.34700000000000000
123000.00000000000000000,-0.00007280000000000,-0.00006780000000000,-0.00006280000000000,-0.00000002620000000,0.00000003680000000,0.00006470000000000,0.00011200000000000,-0.00000285000000000,-0.00013300000000000,0.04610000000000000,0.00047300000000000,-0.04830000000000000,0.00004810000000000,0.00070300000000000,0.29800000000000000,0.34800000000000000
123000.00000000000000000,-0.00007270000000000,-0.00006770000000000,-0.00006260000000000,-0.00000002600000000,0.00000000694000000,0.00006480000000000,0.00011200000000000,-0.00000271000000000,-0.00013300000000000,0.04620000000000000,0.00047200000000000,-0.04840000000000000,0.00004020000000000,0.00068800000000000,0.29800000000000000,0.34800000000000000
123000.00000000000000000,-0.00007260000000000,-0.00006760000000000,-0.00006250000000000,-0.00000002590000000,-0.00000002650000000,0.00006480000000000,0.00011300000000000,-0.00000256000000000,-0.00013200000000000,0.04630000000000000,0.00047000000000000,-0.04850000000000000,0.00003120000000000,0.00067100000000000,0.29800000000000000,0.34900000000000000
123000.00000000000000000,-0.00007250000000000,-0.00006750000000000,-0.00006240000000000,-0.00000002570000000,-0.00000005480000000,0.00006480000000000,0.00011300000000000,-0.00000244000000000,-0.00013200000000000,0.04640000000000000,0.00047000000000000,-0.04860000000000000,0.00002360000000000,0.00065700000000000,0.29800000000000000,0.34900000000000000
124000.00000000000000000,-0.00007240000000000,-0.00006740000000000,-0.00006230000000000,-0.00000002560000000,-0.00000007480000000,0.00006480000000000,0.00011300000000000,-0.00000235000000000,-0.00013200000000000,0.04650000000000000,0.00046900000000000,-0.04870000000000000,0.00001830000000000,0.00064700000000000,0.29900000000000000,0.34900000000000000
124000.00000000000000000,-0.00007240000000000,-0.00006740000000000,-0.00006220000000000,-0.00000002560000000,-0.00000008720000000,0.00006480000000000,0.00011300000000000,-0.00000228000000000,-0.00013200000000000,0.04660000000000000,0.00046800000000000,-0.04880000000000000,0.00001480000000000,0.00064100000000000,0.29900000000000000,0.35000000000000000
124000.00000000000000000,-0.00007230000000000,-0.00006730000000000,-0.00006220000000000,-0.00000002570000000,-0.00000009010000000,0.00006480000000000,0.00011300000000000,-0.00000222000000000,-0.00013200000000000,0.04670000000000000,0.00046800000000000,-0.04890000000000000,0.00001390000000000,0.00063900000000000,0.29900000000000000,0.35000000000000000
124000.00000000000000000,-0.00007230000000000,-0.00006730000000000,-0.00006210000000000,-0.00000002590000000,-0.00000007920000000,0.00006480000000000,0.00011300000000000,-0.00000220000000000,-0.00013200000000000,0.04680000000000000,0.00046800000000000,-0.04900000000000000,0.00001680000000000,0.00064500000000000,0.30000000000000000,0.35000000000000000
124000.00000000000000000,-0.00007240000000000,-0.00006730000000000,-0.00006220000000000,-0.00000002610000000,-0.00000005500000000,0.00006490000000000,0.00011300000000000,-0.00000222000000000,-0.00013200000000000,0.04690000000000000,0.00046900000000000,-0.04910000000000000,0.00002320000000000,0.00065700000000000,0.30000000000000000,0.35100000000000000
124000.00000000000000000,-0.00007240000000000,-0.00006740000000000,-0.00006220000000000,-0.00000002620000000,-0.00000002510000000,0.00006490000000000,0.00011300000000000,-0.00000228000000000,-0.00013200000000000,0.04700000000000000,0.00046900000000000,-0.04920000000000000,0.00003130000000000,0.00067200000000000,0.30000000000000000,0.35100000000000000
124000.00000000000000000,-0.00007250000000000,-0.00006750000000000,-0.00006230000000000,-0.00000002630000000,0.00000000356000000,0.00006490000000000,0.00011300000000000,-0.00000235000000000,-0.00013300000000000,0.04710000000000000,0.00047000000000000,-0.04930000000000000,0.00003910000000000,0.00068600000000000,0.30000000000000000,0.35100000000000000
124000.00000000000000000,-0.00007260000000000,-0.00006760000000000,-0.00006240000000000,-0.00000002630000000,0.00000003010000000,0.00006490000000000,0.00011300000000000,-0.00000243000000000,-0.00013300000000000,0.04720000000000000,0.00047100000000000,-0.04940000000000000,0.00004620000000000,0.00070000000000000,0.30100000000000000,0.35200000000000000
124000.00000000000000000,-0.00007270000000000,-0.00006770000000000,-0.00006250000000000,-0.00000002640000000,0.00000005340000000,0.00006490000000000,0.00011300000000000,-0.00000250000000000,-0.00013300000000000,0.04730000000000000,0.00047200000000000,-0.04950000000000000,0.00005250000000000,0.00071100000000000,0.30100000000000000,0.35200000000000000
124000.00000000000000000,-0.00007280000000000,-0.00006770000000000,-0.00006250000000000,-0.00000002660000000,0.00000006780000000,0.00006490000000000,0.00011300000000000,-0.00000252000000000,-0.00013300000000000,0.04740000000000000,0.00047300000000000,-0.04960000000000000,0.00005640000000000,0.00071900000000000,0.30100000000000000,0.35200000000000000
125000.00000000000000000,-0.00007270000000000,-0.00006760000000000,-0.00006250000000000,-0.00000002670000000,0.00000006790000000,0.00006490000000000,0.00011300000000000,-0.00000246000000000,-0.00013300000000000,0.04750000000000000,0.00047200000000000,-0.04970000000000000,0.00005630000000000,0.00071900000000000,0.30200000000000000,0.35300000000000000
125000.00000000000000000,-0.00007260000000000,-0.00006750000000000,-0.00006240000000000,-0.00000002680000000,0.00000005490000000,0.00006490000000000,0.00011300000000000,-0.00000235000000000,-0.00013300000000000,0.04760000000000000,0.00047100000000000,-0.04980000000000000,0.00005270000000000,0.00071200000000000,0.30200000000000000,0.35300000000000000
125000.00000000000000000,-0.00007250000000000,-0.00006740000000000,-0.00006220000000000,-0.00000002680000000,0.00000003460000000,0.00006500000000000,0.00011300000000000,-0.00000222000000000,-0.00013300000000000,0.04770000000000000,0.00047000000000000,-0.04990000000000000,0.00004710000000000,0.00070200000000000,0.30200000000000000,0.35300000000000000
125000.00000000000000000,-0.00007240000000000,-0.00006730000000000,-0.00006210000000000,-0.00000002660000000,0.00000001030000000,0.00006500000000000,0.00011300000000000,-0.00000210000000000,-0.00013200000000000,0.04790000000000000,0.00047000000000000,-0.05000000000000000,0.00004060000000000,0.00069000000000000,0.30200000000000000,0.35400000000000000
125000.00000000000000000,-0.00007240000000000,-0.00006720000000000,-0.00006200000000000,-0.00000002640000000,-0.00000001770000000,0.00006500000000000,0.00011300000000000,-0.00000199000000000,-0.00013200000000000,0.04800000000000000,0.00046900000000000,-0.05010000000000000,0.00003300000000000,0.00067600000000000,0.30300000000000000,0.35400000000000000
125000.00000000000000000,-0.00007230000000000,-0.00006710000000000,-0.00006190000000000,-0.00000002630000000,-0.00000004690000000,0.00006500000000000,0.00011300000000000,-0.00000186000000000,-0.00013200000000000,0.04810000000000000,0.00046800000000000,-0.05020000000000000,0.00002490000000000,0.00066100000000000,0.30300000000000000,0.35400000000000000
125000.00000000000000000,-0.00007220000000000,-0.00006700000000000,-0.00006180000000000,-0.00000002630000000,-0.00000006870000000,0.00006500000000000,0.00011300000000000,-0.00000174000000000,-0.00013200000000000,0.04820000000000000,0.00046700000000000,-0.05030000000000000,0.00001890000000000,0.00065000000000000,0.30300000000000000,0.35500000000000000
125000.00000000000000000,-0.00007210000000000,-0.00006700000000000,-0.00006170000000000,-0.00000002640000000,-0.00000007770000000,0.00006500000000000,0.00011300000000000,-0.00000166000000000,-0.00013200000000000,0.04830000000000000,0.00046600000000000,-0.05040000000000000,0.00001630000000000,0.00064500000000000,0.30300000000000000,0.35500000000000000
125000.00000000000000000,-0.00007210000000000,-0.00006690000000000,-0.00006170000000000,-0.00000002650000000,-0.00000007580000000,0.00006500000000000,0.00011300000000000,-0.00000163000000000,-0.00013200000000000,0.04840000000000000,0.00046600000000000,-0.05050000000000000,0.00001680000000000,0.00064600000000000,0.30400000000000000,0.35500000000000000
125000.00000000000000000,-0.00007210000000000,-0.00006700000000000,-0.00006170000000000,-0.00000002650000000,-0.00000006500000000,0.00006510000000000,0.00011300000000000,-0.00000163000000000,-0.00013200000000000,0.04850000000000000,0.00046700000000000,-0.05060000000000000,0.00001960000000000,0.00065100000000000,0.30400000000000000,0.35600000000000000
126000.00000000000000000,-0.00007220000000000,-0.00006700000000000,-0.00006170000000000,-0.00000002660000000,-0.00000004580000000,0.00006510000000000,0.00011300000000000,-0.00000167000000000,-0.00013200000000000,0.04860000000000000,0.00046700000000000,-0.05070000000000000,0.00002480000000000,0.00066100000000000,0.30400000000000000,0.35600000000000000
126000.00000000000000000,-0.00007230000000000,-0.00006710000000000,-0.00006180000000000,-0.00000002690000000,-0.00000001880000000,0.00006510000000000,0.00011300000000000,-0.00000173000000000,-0.00013200000000000,0.04870000000000000,0.00046800000000000,-0.05080000000000000,0.00003210000000000,0.00067500000000000,0.30500000000000000,0.35600000000000000
126000.00000000000000000,-0.00007240000000000,-0.00006720000000000,-0.00006190000000000,-0.00000002710000000,0.00000001240000000,0.00006510000000000,0.00011300000000000,-0.00000181000000000,-0.00013200000000000,0.04880000000000000,0.00046900000000000,-0.05090000000000000,0.00004070000000000,0.00069000000000000,0.30500000000000000,0.35700000000000000
126000.00000000000000000,-0.00007240000000000,-0.00006720000000000,-0.00006190000000000,-0.00000002720000000,0.00000003880000000,0.00006510000000000,0.00011300000000000,-0.00000187000000000,-0.00013300000000000,0.04890000000000000,0.00047000000000000,-0.05100000000000000,0.00004790000000000,0.00070400000000000,0.30500000000000000,0.35700000000000000
126000.00000000000000000,-0.00007250000000000,-0.00006730000000000,-0.00006200000000000,-0.00000002730000000,0.00000005520000000,0.00006510000000000,0.00011300000000000,-0.00000189000000000,-0.00013300000000000,0.04900000000000000,0.00047000000000000,-0.05110000000000000,0.00005240000000000,0.00071200000000000,0.30500000000000000,0.35700000000000000
126000.00000000000000000,-0.00007250000000000,-0.00006730000000000,-0.00006200000000000,-0.00000002400000000,0.00000005800000000,0.00006510000000000,0.00011300000000000,-0.00000193000000000,-0.00013300000000000,0.04910000000000000,0.00047000000000000,-0.05120000000000000,0.00005560000000000,0.00071300000000000,0.30600000000000000,0.35800000000000000
126000.00000000000000000,-0.00007260000000000,-0.00006740000000000,-0.00006210000000000,-0.00000002710000000,0.00000006370000000,0.00006520000000000,0.00011300000000000,-0.00000196000000000,-0.00013300000000000,0.04920000000000000,0.00047100000000000,-0.05140000000000000,0.00005530000000000,0.00071600000000000,0.30600000000000000,0.35800000000000000
126000.00000000000000000,-0.00007250000000000,-0.00006730000000000,-0.00006200000000000,-0.00000002770000000,0.00000005780000000,0.00006520000000000,0.00011300000000000,-0.00000186000000000,-0.00013300000000000,0.04930000000000000,0.00047000000000000,-0.05150000000000000,0.00005230000000000,0.00071300000000000,0.30600000000000000,0.35900000000000000
126000.00000000000000000,-0.00007240000000000,-0.00006720000000000,-0.00006180000000000,-0.00000002740000000,0.00000004160000000,0.00006520000000000,0.00011300000000000,-0.00000173000000000,-0.00013300000000000,0.04940000000000000,0.00046900000000000,-0.05150000000000000,0.00004870000000000,0.00070500000000000,0.30700000000000000,0.35900000000000000
126000.00000000000000000,-0.00007230000000000,-0.00006710000000000,-0.00006170000000000,-0.00000002700000000,0.00000002420000000,0.00006520000000000,0.00011300000000000,-0.00000160000000000,-0.00013200000000000,0.04960000000000000,0.00046900000000000,-0.05170000000000000,0.00004380000000000,0.00069800000000000,0.30700000000000000,0.35900000000000000
127000.00000000000000000,-0.00007220000000000,-0.00006690000000000,-0.00006160000000000,-0.00000002700000000,-0.00000001790000000,0.00006520000000000,0.00011300000000000,-0.00000146000000000,-0.00013200000000000,0.04970000000000000,0.00046700000000000,-0.05180000000000000,0.00003260000000000,0.00067500000000000,0.30700000000000000,0.36000000000000000
127000.00000000000000000,-0.00007210000000000,-0.00006690000000000,-0.00006150000000000,-0.00000002720000000,-0.00000002950000000,0.00006520000000000,0.00011300000000000,-0.00000138000000000,-0.00013200000000000,0.04980000000000000,0.00046700000000000,-0.05190000000000000,0.00002840000000000,0.00067000000000000,0.30800000000000000,0.36000000000000000
127000.00000000000000000,-0.00007210000000000,-0.00006680000000000,-0.00006140000000000,-0.00000002710000000,-0.00000004640000000,0.00006520000000000,0.00011300000000000,-0.00000130000000000,-0.00013200000000000,0.04990000000000000,0.00046600000000000,-0.05200000000000000,0.00002430000000000,0.00066100000000000,0.30800000000000000,0.36000000000000000
127000.00000000000000000,-0.00007200000000000,-0.00006670000000000,-0.00006130000000000,-0.00000002720000000,-0.00000006140000000,0.00006530000000000,0.00011300000000000,-0.00000120000000000,-0.00013200000000000,0.05000000000000000,0.00046600000000000,-0.05210000000000000,0.00001940000000000,0.00065300000000000,0.30800000000000000,0.36100000000000000
127000.00000000000000000,-0.00007200000000000,-0.00006670000000000,-0.00006130000000000,-0.00000002700000000,-0.00000006840000000,0.00006530000000000,0.00011300000000000,-0.00000115000000000,-0.00013200000000000,0.05010000000000000,0.00046500000000000,-0.05220000000000000,0.00001830000000000,0.00065000000000000,0.30800000000000000,0.36100000000000000
127000.00000000000000000,-0.00007200000000000,-0.00006670000000000,-0.00006130000000000,-0.00000002710000000,-0.00000005480000000,0.00006530000000000,0.00011300000000000,-0.00000116000000000,-0.00013200000000000,0.05020000000000000,0.00046600000000000,-0.05230000000000000,0.00002160000000000,0.00065800000000000,0.30900000000000000,0.36100000000000000
127000.00000000000000000,-0.00007210000000000,-0.00006680000000000,-0.00006140000000000,-0.00000002700000000,-0.00000004030000000,0.00006530000000000,0.00011300000000000,-0.00000121000000000,-0.00013200000000000,0.05030000000000000,0.00046600000000000,-0.05240000000000000,0.00002620000000000,0.00066500000000000,0.30900000000000000,0.36200000000000000
127000.00000000000000000,-0.00007220000000000,-0.00006690000000000,-0.00006150000000000,-0.00000002760000000,-0.00000000254000000,0.00006530000000000,0.00011300000000000,-0.00000130000000000,-0.00013200000000000,0.05040000000000000,0.00046800000000000,-0.05250000000000000,0.00003610000000000,0.00068400000000000,0.30900000000000000,0.36200000000000000
127000.00000000000000000,-0.00007220000000000,-0.00006690000000000,-0.00006150000000000,-0.00000002760000000,0.00000001760000000,0.00006530000000000,0.00011400000000000,-0.00000133000000000,-0.00013200000000000,0.05050000000000000,0.00046800000000000,-0.05260000000000000,0.00004180000000000,0.00069400000000000,0.31000000000000000,0.36200000000000000
127000.00000000000000000,-0.00007230000000000,-0.00006690000000000,-0.00006150000000000,-0.00000002800000000,0.00000003480000000,0.00006530000000000,0.00011400000000000,-0.00000133000000000,-0.00013200000000000,0.05060000000000000,0.00046800000000000,-0.05270000000000000,0.00004600000000000,0.00070100000000000,0.31000000000000000,0.36300000000000000
128000.00000000000000000,-0.00007230000000000,-0.00006700000000000,-0.00006160000000000,-0.00000002790000000,0.00000005570000000,0.00006530000000000,0.00011400000000000,-0.00000140000000000,-0.00013300000000000,0.05070000000000000,0.00046900000000000,-0.05290000000000000,0.00005230000000000,0.00071200000000000,0.31000000000000000,0.36300000000000000
128000.00000000000000000,-0.00007240000000000,-0.00006700000000000,-0.00006160000000000,-0.00000002830000000,0.00000006550000000,0.00006540000000000,0.00011400000000000,-0.00000139000000000,-0.00013300000000000,0.05090000000000000,0.00046900000000000,-0.05300000000000000,0.00005460000000000,0.00071700000000000,0.31000000000000000,0.36300000000000000
128000.00000000000000000,-0.00007240000000000,-0.00006700000000000,-0.00006160000000000,-0.00000002820000000,0.00000006770000000,0.00006540000000000,0.00011400000000000,-0.00000139000000000,-0.00013300000000000,0.05100000000000000,0.00047000000000000,-0.05310000000000000,0.00005560000000000,0.00071800000000000,0.31100000000000000,0.36400000000000000
128000.00000000000000000,-0.00007240000000000,-0.00006700000000000,-0.00006160000000000,-0.00000002820000000,0.00000006200000000,0.00006540000000000,0.00011400000000000,-0.00000134000000000,-0.00013300000000000,0.05110000000000000,0.00046900000000000,-0.05320000000000000,0.00005420000000000,0.00071600000000000,0.31100000000000000,0.36400000000000000
128000.00000000000000000,-0.00007230000000000,-0.00006690000000000,-0.00006150000000000,-0.00000002810000000,0.00000004290000000,0.00006540000000000,0.00011400000000000,-0.00000125000000000,-0.00013300000000000,0.05120000000000000,0.00046900000000000,-0.05330000000000000,0.00004870000000000,0.00070600000000000,0.31100000000000000,0.36400000000000000
128000.00000000000000000,-0.00007220000000000,-0.00006690000000000,-0.00006140000000000,-0.00000002830000000,0.00000003060000000,0.00006540000000000,0.00011400000000000,-0.00000117000000000,-0.00013200000000000,0.05130000000000000,0.00046800000000000,-0.05340000000000000,0.00004490000000000,0.00070000000000000,0.31200000000000000,0.36500000000000000
128000.00000000000000000,-0.00007220000000000,-0.00006680000000000,-0.00006130000000000,-0.00000002830000000,0.00000001290000000,0.00006540000000000,0.00011400000000000,-0.00000107000000000,-0.00013200000000000,0.05140000000000000,0.00046700000000000,-0.05350000000000000,0.00003950000000000,0.00069100000000000,0.31200000000000000,0.36500000000000000
128000.00000000000000000,-0.00007210000000000,-0.00006670000000000,-0.00006120000000000,-0.00000002820000000,-0.00000001570000000,0.00006540000000000,0.00011400000000000,-0.00000094300000000,-0.00013200000000000,0.05150000000000000,0.00046600000000000,-0.05360000000000000,0.00003110000000000,0.00067600000000000,0.31200000000000000,0.36500000000000000
128000.00000000000000000,-0.00007200000000000,-0.00006660000000000,-0.00006110000000000,-0.00000002820000000,-0.00000003090000000,0.00006550000000000,0.00011400000000000,-0.00000087200000000,-0.00013200000000000,0.05160000000000000,0.00046600000000000,-0.05370000000000000,0.00002670000000000,0.00067000000000000,0.31200000000000000,0.36600000000000000
128000.00000000000000000,-0.00007200000000000,-0.00006660000000000,-0.00006100000000000,-0.00000002800000000,-0.00000004760000000,0.00006550000000000,0.00011400000000000,-0.00000080800000000,-0.00013200000000000,0.05170000000000000,0.00046600000000000,-0.05380000000000000,0.00002230000000000,0.00066100000000000,0.31300000000000000,0.36600000000000000
129000.00000000000000000,-0.00007200000000000,-0.00006660000000000,-0.00006100000000000,-0.00000002810000000,-0.00000005150000000,0.00006550000000000,0.00011400000000000,-0.00000077500000000,-0.00013200000000000,0.05190000000000000,0.00046500000000000,-0.05390000000000000,0.00002100000000000,0.00065900000000000,0.31300000000000000,0.36700000000000000
129000.00000000000000000,-0.00007200000000000,-0.00006660000000000,-0.00006100000000000,-0.00000002810000000,-0.00000004370000000,0.00006550000000000,0.00011400000000000,-0.00000078600000000,-0.00013200000000000,0.05200000000000000,0.00046600000000000,-0.05410000000000000,0.00002330000000000,0.00066400000000000,0.31300000000000000,0.36700000000000000
129000.00000000000000000,-0.00007200000000000,-0.00006660000000000,-0.00006100000000000,-0.00000002850000000,-0.00000003670000000,0.00006550000000000,0.00011400000000000,-0.00000076600000000,-0.00013200000000000,0.05210000000000000,0.00046600000000000,-0.05420000000000000,0.00002450000000000,0.00066700000000000,0.31400000000000000,0.36700000000000000
129000.00000000000000000,-0.00007210000000000,-0.00006660000000000,-0.00006110000000000,-0.00000002860000000,-0.00000001740000000,0.00006550000000000,0.00011400000000000,-0.00000081900000000,-0.00013200000000000,0.05220000000000000,0.00046700000000000,-0.05430000000000000,0.00002980000000000,0.00067600000000000,0.31400000000000000,0.36800000000000000
129000.00000000000000000,-0.00007220000000000,-0.00006670000000000,-0.00006120000000000,-0.00000002890000000,0.00000001010000000,0.00006550000000000,0.00011400000000000,-0.00000089100000000,-0.00013200000000000,0.05230000000000000,0.00046700000000000,-0.05440000000000000,0.00003720000000000,0.00069000000000000,0.31400000000000000,0.36800000000000000
129000.00000000000000000,-0.00007230000000000,-0.00006680000000000,-0.00006120000000000,-0.00000002880000000,0.00000002950000000,0.00006560000000000,0.00011400000000000,-0.00000095900000000,-0.00013300000000000,0.05240000000000000,0.00046800000000000,-0.05450000000000000,0.00004300000000000,0.00070000000000000,0.31400000000000000,0.36800000000000000
129000.00000000000000000,-0.00007230000000000,-0.00006690000000000,-0.00006130000000000,-0.00000002910000000,0.00000005280000000,0.00006560000000000,0.00011400000000000,-0.00000103000000000,-0.00013300000000000,0.05250000000000000,0.00046900000000000,-0.05460000000000000,0.00004950000000000,0.00071200000000000,0.31500000000000000,0.36900000000000000
129000.00000000000000000,-0.00007240000000000,-0.00006690000000000,-0.00006140000000000,-0.00000002920000000,0.00000006300000000,0.00006560000000000,0.00011400000000000,-0.00000106000000000,-0.00013300000000000,0.05260000000000000,0.00047000000000000,-0.05480000000000000,0.00005260000000000,0.00071700000000000,0.31500000000000000,0.36900000000000000
129000.00000000000000000,-0.00007240000000000,-0.00006690000000000,-0.00006140000000000,-0.00000002940000000,0.00000006990000000,0.00006560000000000,0.00011400000000000,-0.00000107000000000,-0.00013300000000000,0.05280000000000000,0.00047000000000000,-0.05490000000000000,0.00005420000000000,0.00072000000000000,0.31500000000000000,0.36900000000000000
129000.00000000000000000,-0.00007250000000000,-0.00006700000000000,-0.00006140000000000,-0.00000002950000000,0.00000007890000000,0.00006560000000000,0.00011400000000000,-0.00000110000000000,-0.00013300000000000,0.05290000000000000,0.00047000000000000,-0.05500000000000000,0.00005690000000000,0.00072500000000000,0.31600000000000000,0.37000000000000000
130000.00000000000000000,-0.00007250000000000,-0.00006700000000000,-0.00006140000000000,-0.00000002970000000,0.00000007490000000,0.00006560000000000,0.00011400000000000,-0.00000105000000000,-0.00013300000000000,0.05300000000000000,0.00047000000000000,-0.05510000000000000,0.00005500000000000,0.00072300000000000,0.31600000000000000,0.37000000000000000
130000.00000000000000000,-0.00007240000000000,-0.00006690000000000,-0.00006130000000000,-0.00000002960000000,0.00000006130000000,0.00006560000000000,0.00011400000000000,-0.00000101000000000,-0.00013300000000000,0.05310000000000000,0.00047000000000000,-0.05520000000000000,0.00005110000000000,0.00071600000000000,0.31600000000000000,0.37000000000000000
130000.00000000000000000,-0.00007240000000000,-0.00006690000000000,-0.00006130000000000,-0.00000002950000000,0.00000004630000000,0.00006570000000000,0.00011400000000000,-0.00000094000000000,-0.00013300000000000,0.05320000000000000,0.00046900000000000,-0.05530000000000000,0.00004670000000000,0.00070900000000000,0.31700000000000000,0.37100000000000000
130000.00000000000000000,-0.00007230000000000,-0.00006680000000000,-0.00006120000000000,-0.00000002950000000,0.00000002440000000,0.00006570000000000,0.00011400000000000,-0.00000085500000000,-0.00013300000000000,0.05330000000000000,0.00046900000000000,-0.05540000000000000,0.00004030000000000,0.00069800000000000,0.31700000000000000,0.37100000000000000
130000.00000000000000000,-0.00007230000000000,-0.00006680000000000,-0.00006120000000000,-0.00000002950000000,0.00000001150000000,0.00006570000000000,0.00011400000000000,-0.00000079900000000,-0.00013300000000000,0.05350000000000000,0.00046800000000000,-0.05560000000000000,0.00003650000000000,0.00069300000000000,0.31700000000000000,0.37200000000000000
130000.00000000000000000,-0.00007230000000000,-0.00006670000000000,-0.00006110000000000,-0.00000002940000000,-0.00000000705000000,0.00006570000000000,0.00011400000000000,-0.00000074100000000,-0.00013300000000000,0.05360000000000000,0.00046800000000000,-0.05570000000000000,0.00003130000000000,0.00068400000000000,0.31700000000000000,0.37200000000000000
130000.00000000000000000,-0.00007220000000000,-0.00006670000000000,-0.00006100000000000,-0.00000002930000000,-0.00000002440000000,0.00006570000000000,0.00011400000000000,-0.00000066800000000,-0.00013300000000000,0.05370000000000000,0.00046700000000000,-0.05580000000000000,0.00002600000000000,0.00067500000000000,0.31800000000000000,0.37200000000000000
130000.00000000000000000,-0.00007220000000000,-0.00006670000000000,-0.00006100000000000,-0.00000002920000000,-0.00000003020000000,0.00006570000000000,0.00011400000000000,-0.00000064400000000,-0.00013300000000000,0.05380000000000000,0.00046700000000000,-0.05590000000000000,0.00002420000000000,0.00067200000000000,0.31800000000000000,0.37300000000000000
130000.00000000000000000,-0.00007220000000000,-0.00006670000000000,-0.00006100000000000,-0.00000002910000000,-0.00000003310000000,0.00006570000000000,0.00011400000000000,-0.00000063000000000,-0.00013300000000000,0.05390000000000000,0.00046700000000000,-0.05600000000000000,0.00002350000000000,0.00067100000000000,0.31800000000000000,0.37300000000000000
130000.00000000000000000,-0.00007230000000000,-0.00006670000000000,-0.00006100000000000,-0.00000002920000000,-0.00000002640000000,0.00006580000000000,0.00011400000000000,-0.00000065700000000,-0.00013300000000000,0.05400000000000000,0.00046800000000000,-0.05610000000000000,0.00002540000000000,0.00067400000000000,0.31900000000000000,0.37300000000000000
131000.00000000000000000,-0.00007240000000000,-0.00006680000000000,-0.00006110000000000,-0.00000002920000000,-0.00000001210000000,0.00006580000000000,0.00011400000000000,-0.00000070900000000,-0.00013300000000000,0.05420000000000000,0.00046800000000000,-0.05630000000000000,0.00002970000000000,0.00068100000000000,0.31900000000000000,0.37400000000000000
131000.00000000000000000,-0.00007240000000000,-0.00006680000000000,-0.00006120000000000,-0.00000002940000000,-0.00000000213000000,0.00006580000000000,0.00011400000000000,-0.00000074600000000,-0.00013300000000000,0.05430000000000000,0.00046900000000000,-0.05640000000000000,0.00003270000000000,0.00068600000000000,0.31900000000000000,0.37400000000000000
131000.00000000000000000,-0.00007250000000000,-0.00006690000000000,-0.00006120000000000,-0.00000002940000000,0.00000002190000000,0.00006580000000000,0.00011400000000000,-0.00000082800000000,-0.00013300000000000,0.05440000000000000,0.00047000000000000,-0.05650000000000000,0.00003980000000000,0.00069900000000000,0.32000000000000000,0.37400000000000000
131000.00000000000000000,-0.00007260000000000,-0.00006700000000000,-0.00006130000000000,-0.00000002950000000,0.00000004510000000,0.00006580000000000,0.00011400000000000,-0.00000091100000000,-0.00013300000000000,0.05450000000000000,0.00047100000000000,-0.05660000000000000,0.00004670000000000,0.00071000000000000,0.32000000000000000,0.37500000000000000
131000.00000000000000000,-0.00007270000000000,-0.00006710000000000,-0.00006140000000000,-0.00000002960000000,0.00000006040000000,0.00006580000000000,0.00011400000000000,-0.00000096000000000,-0.00013300000000000,0.05460000000000000,0.00047100000000000,-0.05680000000000000,0.00005120000000000,0.00071700000000000,0.32000000000000000,0.37500000000000000
131000.00000000000000000,-0.00007280000000000,-0.00006710000000000,-0.00006140000000000,-0.00000002980000000,0.00000007440000000,0.00006590000000000,0.00011400000000000,-0.00000100000000000,-0.00013300000000000,0.05480000000000000,0.00047200000000000,-0.05690000000000000,0.00005510000000000,0.00072400000000000,0.32000000000000000,0.37600000000000000
131000.00000000000000000,-0.00007280000000000,-0.00006710000000000,-0.00006150000000000,-0.00000002980000000,0.00000007630000000,0.00006590000000000,0.00011500000000000,-0.00000100000000000,-0.00013300000000000,0.05490000000000000,0.00047200000000000,-0.05700000000000000,0.00005570000000000,0.00072400000000000,0.32100000000000000,0.37600000000000000
131000.00000000000000000,-0.00007280000000000,-0.00006720000000000,-0.00006150000000000,-0.00000002980000000,0.00000007570000000,0.00006590000000000,0.00011500000000000,-0.00000101000000000,-0.00013300000000000,0.05500000000000000,0.00047200000000000,-0.05710000000000000,0.00005570000000000,0.00072400000000000,0.32100000000000000,0.37600000000000000
131000.00000000000000000,-0.00007280000000000,-0.00006720000000000,-0.00006150000000000,-0.00000002970000000,0.00000007470000000,0.00006590000000000,0.00011500000000000,-0.00000101000000000,-0.00013300000000000,0.05510000000000000,0.00047200000000000,-0.05720000000000000,0.00005580000000000,0.00072500000000000,0.32100000000000000,0.37700000000000000
131000.00000000000000000,-0.00007280000000000,-0.00006720000000000,-0.00006140000000000,-0.00000002960000000,0.00000006090000000,0.00006590000000000,0.00011500000000000,-0.00000097100000000,-0.00013300000000000,0.05520000000000000,0.00047200000000000,-0.05740000000000000,0.00005170000000000,0.00071800000000000,0.32200000000000000,0.37700000000000000
132000.00000000000000000,-0.00007280000000000,-0.00006710000000000,-0.00006140000000000,-0.00000002940000000,0.00000004430000000,0.00006590000000000,0.00011500000000000,-0.00000091500000000,-0.00013300000000000,0.05540000000000000,0.00047100000000000,-0.05750000000000000,0.00004700000000000,0.00071000000000000,0.32200000000000000,0.37700000000000000
132000.00000000000000000,-0.00007270000000000,-0.00006710000000000,-0.00006130000000000,-0.00000002930000000,0.00000002610000000,0.00006590000000000,0.00011500000000000,-0.00000084600000000,-0.00013300000000000,0.05550000000000000,0.00047100000000000,-0.05760000000000000,0.00004140000000000,0.00070100000000000,0.32200000000000000,0.37800000000000000
132000.00000000000000000,-0.00007270000000000,-0.00006700000000000,-0.00006130000000000,-0.00000002930000000,0.00000000778000000,0.00006600000000000,0.00011500000000000,-0.00000077400000000,-0.00013300000000000,0.05560000000000000,0.00047000000000000,-0.05770000000000000,0.00003580000000000,0.00069200000000000,0.32300000000000000,0.37800000000000000
132000.00000000000000000,-0.00007270000000000,-0.00006700000000000,-0.00006130000000000,-0.00000002920000000,-0.00000000144000000,0.00006600000000000,0.00011500000000000,-0.00000076000000000,-0.00013300000000000,0.05570000000000000,0.00047000000000000,-0.05780000000000000,0.00003310000000000,0.00068800000000000,0.32300000000000000,0.37900000000000000
132000.00000000000000000,-0.00007270000000000,-0.00006700000000000,-0.00006120000000000,-0.00000002900000000,-0.00000001700000000,0.00006600000000000,0.00011500000000000,-0.00000072300000000,-0.00013300000000000,0.05590000000000000,0.00047000000000000,-0.05800000000000000,0.00002860000000000,0.00068000000000000,0.32300000000000000,0.37900000000000000
132000.00000000000000000,-0.00007270000000000,-0.00006700000000000,-0.00006120000000000,-0.00000002890000000,-0.00000002650000000,0.00006600000000000,0.00011500000000000,-0.00000070600000000,-0.00013300000000000,0.05600000000000000,0.00047000000000000,-0.05810000000000000,0.00002590000000000,0.00067600000000000,0.32300000000000000,0.37900000000000000
132000.00000000000000000,-0.00007280000000000,-0.00006700000000000,-0.00006130000000000,-0.00000002890000000,-0.00000002620000000,0.00006600000000000,0.00011500000000000,-0.00000073400000000,-0.00013300000000000,0.05610000000000000,0.00047000000000000,-0.05820000000000000,0.00002610000000000,0.00067700000000000,0.32400000000000000,0.38000000000000000
132000.00000000000000000,-0.00007280000000000,-0.00006710000000000,-0.00006130000000000,-0.00000002890000000,-0.00000002320000000,0.00006600000000000,0.00011500000000000,-0.00000075300000000,-0.00013300000000000,0.05620000000000000,0.00047100000000000,-0.05840000000000000,0.00002700000000000,0.00067800000000000,0.32400000000000000,0.38000000000000000
132000.00000000000000000,-0.00007290000000000,-0.00006710000000000,-0.00006130000000000,-0.00000002900000000,-0.00000001020000000,0.00006600000000000,0.00011500000000000,-0.00000080800000000,-0.00013300000000000,0.05640000000000000,0.00047100000000000,-0.05850000000000000,0.00003100000000000,0.00068400000000000,0.32400000000000000,0.38000000000000000
132000.00000000000000000,-0.00007290000000000,-0.00006720000000000,-0.00006140000000000,-0.00000002900000000,0.00000000313000000,0.00006610000000000,0.00011500000000000,-0.00000086100000000,-0.00013300000000000,0.05650000000000000,0.00047200000000000,-0.05860000000000000,0.00003480000000000,0.00069100000000000,0.32500000000000000,0.38100000000000000
133000.00000000000000000,-0.00007300000000000,-0.00006730000000000,-0.00006150000000000,-0.00000002910000000,0.00000001450000000,0.00006610000000000,0.00011500000000000,-0.00000091200000000,-0.00013400000000000,0.05660000000000000,0.00047200000000000,-0.05870000000000000,0.00003820000000000,0.00069600000000000,0.32500000000000000,0.38100000000000000
133000.00000000000000000,-0.00007310000000000,-0.00006740000000000,-0.00006160000000000,-0.00000002910000000,0.00000003680000000,0.00006610000000000,0.00011500000000000,-0.00000100000000000,-0.00013400000000000,0.05670000000000000,0.00047300000000000,-0.05890000000000000,0.00004500000000000,0.00070700000000000,0.32500000000000000,0.38200000000000000
133000.00000000000000000,-0.00007320000000000,-0.00006740000000000,-0.00006160000000000,-0.00000002930000000,0.00000005350000000,0.00006610000000000,0.00011500000000000,-0.00000107000000000,-0.00013400000000000,0.05690000000000000,0.00047400000000000,-0.05900000000000000,0.00005000000000000,0.00071600000000000,0.32600000000000000,0.38200000000000000
133000.00000000000000000,-0.00007330000000000,-0.00006750000000000,-0.00006170000000000,-0.00000002930000000,0.00000006650000000,0.00006610000000000,0.00011500000000000,-0.00000114000000000,-0.00013400000000000,0.05700000000000000,0.00047500000000000,-0.05910000000000000,0.00005440000000000,0.00072200000000000,0.32600000000000000,0.38200000000000000
133000.00000000000000000,-0.00007340000000000,-0.00006760000000000,-0.00006180000000000,-0.00000002930000000,0.00000007510000000,0.00006610000000000,0.00011500000000000,-0.00000119000000000,-0.00013400000000000,0.05710000000000000,0.00047500000000000,-0.05920000000000000,0.00005720000000000,0.00072700000000000,0.32600000000000000,0.38300000000000000
133000.00000000000000000,-0.00007340000000000,-0.00006760000000000,-0.00006180000000000,-0.00000002930000000,0.00000007400000000,0.00006620000000000,0.00011500000000000,-0.00000119000000000,-0.00013400000000000,0.05720000000000000,0.00047500000000000,-0.05940000000000000,0.00005670000000000,0.00072600000000000,0.32700000000000000,0.38300000000000000
133000.00000000000000000,-0.00007350000000000,-0.00006760000000000,-0.00006180000000000,-0.00000002910000000,0.00000007550000000,0.00006620000000000,0.00011500000000000,-0.00000121000000000,-0.00013400000000000,0.05740000000000000,0.00047600000000000,-0.05950000000000000,0.00005740000000000,0.00072700000000000,0.32700000000000000,0.38300000000000000
133000.00000000000000000,-0.00007350000000000,-0.00006760000000000,-0.00006180000000000,-0.00000002920000000,0.00000007160000000,0.00006620000000000,0.00011500000000000,-0.00000120000000000,-0.00013400000000000,0.05750000000000000,0.00047600000000000,-0.05960000000000000,0.00005600000000000,0.00072500000000000,0.32700000000000000,0.38400000000000000
133000.00000000000000000,-0.00007350000000000,-0.00006760000000000,-0.00006180000000000,-0.00000002910000000,0.00000006040000000,0.00006620000000000,0.00011500000000000,-0.00000117000000000,-0.00013400000000000,0.05760000000000000,0.00047500000000000,-0.05970000000000000,0.00005250000000000,0.00071900000000000,0.32700000000000000,0.38400000000000000
133000.00000000000000000,-0.00007350000000000,-0.00006760000000000,-0.00006180000000000,-0.00000002890000000,0.00000004620000000,0.00006620000000000,0.00011500000000000,-0.00000114000000000,-0.00013400000000000,0.05770000000000000,0.00047500000000000,-0.05990000000000000,0.00004860000000000,0.00071300000000000,0.32800000000000000,0.38500000000000000
134000.00000000000000000,-0.00007340000000000,-0.00006760000000000,-0.00006170000000000,-0.00000002880000000,0.00000002660000000,0.00006620000000000,0.00011500000000000,-0.00000109000000000,-0.00013400000000000,0.05790000000000000,0.00047500000000000,-0.06000000000000000,0.00004280000000000,0.00070400000000000,0.32800000000000000,0.38500000000000000
134000.00000000000000000,-0.00007340000000000,-0.00006760000000000,-0.00006170000000000,-0.00000002860000000,0.00000001280000000,0.00006620000000000,0.00011500000000000,-0.00000107000000000,-0.00013400000000000,0.05800000000000000,0.00047500000000000,-0.06010000000000000,0.00003900000000000,0.00069800000000000,0.32800000000000000,0.38500000000000000
134000.00000000000000000,-0.00007340000000000,-0.00006760000000000,-0.00006170000000000,-0.00000002850000000,0.00000000286000000,0.00006630000000000,0.00011500000000000,-0.00000105000000000,-0.00013400000000000,0.05810000000000000,0.00047500000000000,-0.06020000000000000,0.00003600000000000,0.00069300000000000,0.32900000000000000,0.38600000000000000
134000.00000000000000000,-0.00007340000000000,-0.00006760000000000,-0.00006170000000000,-0.00000002850000000,-0.00000001140000000,0.00006630000000000,0.00011500000000000,-0.00000101000000000,-0.00013400000000000,0.05820000000000000,0.00047400000000000,-0.06040000000000000,0.00003140000000000,0.00068500000000000,0.32900000000000000,0.38600000000000000
134000.00000000000000000,-0.00007340000000000,-0.00006760000000000,-0.00006170000000000,-0.00000002850000000,-0.00000001780000000,0.00006630000000000,0.00011500000000000,-0.00000098800000000,-0.00013400000000000,0.05840000000000000,0.00047400000000000,-0.06050000000000000,0.00002920000000000,0.00068200000000000,0.32900000000000000,0.38600000000000000
134000.00000000000000000,-0.00007340000000000,-0.00006760000000000,-0.00006170000000000,-0.00000002850000000,-0.00000002260000000,0.00006630000000000,0.00011500000000000,-0.00000097700000000,-0.00013400000000000,0.05850000000000000,0.00047400000000000,-0.06060000000000000,0.00002750000000000,0.00067900000000000,0.33000000000000000,0.38700000000000000
134000.00000000000000000,-0.00007350000000000,-0.00006760000000000,-0.00006170000000000,-0.00000002850000000,-0.00000001880000000,0.00006630000000000,0.00011500000000000,-0.00000102000000000,-0.00013400000000000,0.05860000000000000,0.00047500000000000,-0.06080000000000000,0.00002900000000000,0.00068200000000000,0.33000000000000000,0.38700000000000000
134000.00000000000000000,-0.00007360000000000,-0.00006770000000000,-0.00006180000000000,-0.00000002840000000,-0.00000000638000000,0.00006630000000000,0.00011500000000000,-0.00000109000000000,-0.00013400000000000,0.05880000000000000,0.00047500000000000,-0.06090000000000000,0.00003330000000000,0.00068900000000000,0.33000000000000000,0.38800000000000000
134000.00000000000000000,-0.00007370000000000,-0.00006780000000000,-0.00006180000000000,-0.00000002840000000,0.00000000281000000,0.00006640000000000,0.00011500000000000,-0.00000114000000000,-0.00013400000000000,0.05890000000000000,0.00047600000000000,-0.06100000000000000,0.00003630000000000,0.00069300000000000,0.33100000000000000,0.38800000000000000
134000.00000000000000000,-0.00007380000000000,-0.00006780000000000,-0.00006190000000000,-0.00000002850000000,0.00000001720000000,0.00006640000000000,0.00011500000000000,-0.00000120000000000,-0.00013400000000000,0.05900000000000000,0.00047700000000000,-0.06110000000000000,0.00004080000000000,0.00070100000000000,0.33100000000000000,0.38800000000000000
135000.00000000000000000,-0.00007380000000000,-0.00006790000000000,-0.00006200000000000,-0.00000002860000000,0.00000003380000000,0.00006640000000000,0.00011500000000000,-0.00000125000000000,-0.00013500000000000,0.05910000000000000,0.00047700000000000,-0.06130000000000000,0.00004550000000000,0.00070800000000000,0.33100000000000000,0.38900000000000000
135000.00000000000000000,-0.00007390000000000,-0.00006800000000000,-0.00006200000000000,-0.00000002870000000,0.00000005000000000,0.00006640000000000,0.00011500000000000,-0.00000130000000000,-0.00013500000000000,0.05930000000000000,0.00047800000000000,-0.06140000000000000,0.00005030000000000,0.00071600000000000,0.33100000000000000,0.38900000000000000
135000.00000000000000000,-0.00007400000000000,-0.00006800000000000,-0.00006210000000000,-0.00000002880000000,0.00000006710000000,0.00006640000000000,0.00011500000000000,-0.00000138000000000,-0.00013500000000000,0.05940000000000000,0.00047900000000000,-0.06150000000000000,0.00005580000000000,0.00072400000000000,0.33200000000000000,0.38900000000000000
135000.00000000000000000,-0.00007410000000000,-0.00006810000000000,-0.00006220000000000,-0.00000002880000000,0.00000007310000000,0.00006640000000000,0.00011600000000000,-0.00000142000000000,-0.00013500000000000,0.05950000000000000,0.00047900000000000,-0.06170000000000000,0.00005770000000000,0.00072700000000000,0.33200000000000000,0.39000000000000000
135000.00000000000000000,-0.00007410000000000,-0.00006810000000000,-0.00006220000000000,-0.00000002870000000,0.00000007390000000,0.00006640000000000,0.00011600000000000,-0.00000145000000000,-0.00013500000000000,0.05960000000000000,0.00047900000000000,-0.06180000000000000,0.00005840000000000,0.00072800000000000,0.33200000000000000,0.39000000000000000
135000.00000000000000000,-0.00007420000000000,-0.00006820000000000,-0.00006220000000000,-0.00000002860000000,0.00000007370000000,0.00006650000000000,0.00011600000000000,-0.00000147000000000,-0.00013500000000000,0.05980000000000000,0.00048000000000000,-0.06190000000000000,0.00005870000000000,0.00072900000000000,0.33300000000000000,0.39100000000000000
135000.00000000000000000,-0.00007420000000000,-0.00006820000000000,-0.00006220000000000,-0.00000002870000000,0.00000006840000000,0.00006650000000000,0.00011600000000000,-0.00000146000000000,-0.00013500000000000,0.05990000000000000,0.00048000000000000,-0.06200000000000000,0.00005690000000000,0.00072600000000000,0.33300000000000000,0.39100000000000000
135000.00000000000000000,-0.00007420000000000,-0.00006820000000000,-0.00006220000000000,-0.00000002860000000,0.00000006340000000,0.00006650000000000,0.00011600000000000,-0.00000145000000000,-0.00013500000000000,0.06000000000000000,0.00048000000000000,-0.06220000000000000,0.00005530000000000,0.00072400000000000,0.33300000000000000,0.39100000000000000
135000.00000000000000000,-0.00007420000000000,-0.00006820000000000,-0.00006220000000000,-0.00000002860000000,0.00000004900000000,0.00006650000000000,0.00011600000000000,-0.00000141000000000,-0.00013500000000000,0.06020000000000000,0.00047900000000000,-0.06230000000000000,0.00005070000000000,0.00071600000000000,0.33400000000000000,0.39200000000000000
135000.00000000000000000,-0.00007410000000000,-0.00006810000000000,-0.00006210000000000,-0.00000002840000000,0.00000003160000000,0.00006650000000000,0.00011600000000000,-0.00000136000000000,-0.00013500000000000,0.06030000000000000,0.00047900000000000,-0.06240000000000000,0.00004530000000000,0.00070800000000000,0.33400000000000000,0.39200000000000000
136000.00000000000000000,-0.00007420000000000,-0.00006810000000000,-0.00006210000000000,-0.00000002830000000,0.00000001960000000,0.00006650000000000,0.00011600000000000,-0.00000134000000000,-0.00013500000000000,0.06040000000000000,0.00047900000000000,-0.06260000000000000,0.00004180000000000,0.00070300000000000,0.33400000000000000,0.39200000000000000
136000.00000000000000000,-0.00007410000000000,-0.00006810000000000,-0.00006210000000000,-0.00000002810000000,0.00000000519000000,0.00006660000000000,0.00011600000000000,-0.00000131000000000,-0.00013500000000000,0.06050000000000000,0.00047900000000000,-0.06270000000000000,0.00003770000000000,0.00069600000000000,0.33500000000000000,0.39300000000000000
136000.00000000000000000,-0.00007420000000000,-0.00006810000000000,-0.00006210000000000,-0.00000002800000000,-0.00000000395000000,0.00006660000000000,0.00011600000000000,-0.00000130000000000,-0.00013500000000000,0.06070000000000000,0.00047900000000000,-0.06280000000000000,0.00003510000000000,0.00069200000000000,0.33500000000000000,0.39300000000000000
136000.00000000000000000,-0.00007420000000000,-0.00006810000000000,-0.00006210000000000,-0.00000002800000000,-0.00000001190000000,0.00006660000000000,0.00011600000000000,-0.00000128000000000,-0.00013500000000000,0.06080000000000000,0.00047900000000000,-0.06290000000000000,0.00003260000000000,0.00068900000000000,0.33500000000000000,0.39400000000000000
136000.00000000000000000,-0.00007420000000000,-0.00006810000000000,-0.00006210000000000,-0.00000002790000000,-0.00000001900000000,0.00006660000000000,0.00011600000000000,-0.00000127000000000,-0.00013500000000000,0.06090000000000000,0.00047900000000000,-0.06310000000000000,0.00003030000000000,0.00068500000000000,0.33500000000000000,0.39400000000000000
136000.00000000000000000,-0.00007420000000000,-0.00006820000000000,-0.00006210000000000,-0.00000002780000000,-0.00000001330000000,0.00006660000000000,0.00011600000000000,-0.00000130000000000,-0.00013500000000000,0.06110000000000000,0.00047900000000000,-0.06320000000000000,0.00003210000000000,0.00068800000000000,0.33600000000000000,0.39400000000000000
136000.00000000000000000,-0.00007430000000000,-0.00006820000000000,-0.00006220000000000,-0.00000002790000000,-0.00000000472000000,0.00006660000000000,0.00011600000000000,-0.00000134000000000,-0.00013500000000000,0.06120000000000000,0.00047900000000000,-0.06330000000000000,0.00003470000000000,0.00069100000000000,0.33600000000000000,0.39500000000000000
136000.00000000000000000,-0.00007440000000000,-0.00006830000000000,-0.00006220000000000,-0.00000002800000000,0.00000000660000000,0.00006660000000000,0.00011600000000000,-0.00000138000000000,-0.00013500000000000,0.06130000000000000,0.00048000000000000,-0.06350000000000000,0.00003830000000000,0.00069700000000000,0.33600000000000000,0.39500000000000000
136000.00000000000000000,-0.00007450000000000,-0.00006840000000000,-0.00006230000000000,-0.00000002800000000,0.00000002010000000,0.00006670000000000,0.00011600000000000,-0.00000145000000000,-0.00013500000000000,0.06140000000000000,0.00048100000000000,-0.06360000000000000,0.00004280000000000,0.00070400000000000,0.33700000000000000,0.39500000000000000
136000.00000000000000000,-0.00007450000000000,-0.00006840000000000,-0.00006240000000000,-0.00000002810000000,0.00000003050000000,0.00006670000000000,0.00011600000000000,-0.00000150000000000,-0.00013500000000000,0.06160000000000000,0.00048100000000000,-0.06370000000000000,0.00004610000000000,0.00070900000000000,0.33700000000000000,0.39600000000000000
137000.00000000000000000,-0.00007460000000000,-0.00006850000000000,-0.00006250000000000,-0.00000002820000000,0.00000004760000000,0.00006670000000000,0.00011600000000000,-0.00000158000000000,-0.00013600000000000,0.06170000000000000,0.00048200000000000,-0.06390000000000000,0.00005170000000000,0.00071800000000000,0.33700000000000000,0.39600000000000000
137000.00000000000000000,-0.00007470000000000,-0.00006860000000000,-0.00006250000000000,-0.00000002830000000,0.00000006200000000,0.00006670000000000,0.00011600000000000,-0.00000164000000000,-0.00013600000000000,0.06180000000000000,0.00048300000000000,-0.06400000000000000,0.00005620000000000,0.00072500000000000,0.33800000000000000,0.39700000000000000
137000.00000000000000000,-0.00007480000000000,-0.00006860000000000,-0.00006260000000000,-0.00000002840000000,0.00000006990000000,0.00006670000000000,0.00011600000000000,-0.00000167000000000,-0.00013600000000000,0.06200000000000000,0.00048300000000000,-0.06410000000000000,0.00005850000000000,0.00072800000000000,0.33800000000000000,0.39700000000000000
137000.00000000000000000,-0.00007480000000000,-0.00006870000000000,-0.00006260000000000,-0.00000002840000000,0.00000007500000000,0.00006670000000000,0.00011600000000000,-0.00000170000000000,-0.00013600000000000,0.06210000000000000,0.00048300000000000,-0.06430000000000000,0.00006000000000000,0.00073000000000000,0.33800000000000000,0.39700000000000000
137000.00000000000000000,-0.00007480000000000,-0.00006870000000000,-0.00006260000000000,-0.00000002840000000,0.00000007120000000,0.00006670000000000,0.00011600000000000,-0.00000170000000000,-0.00013600000000000,0.06220000000000000,0.00048300000000000,-0.06440000000000000,0.00005890000000000,0.00072800000000000,0.33900000000000000,0.39800000000000000
137000.00000000000000000,-0.00007490000000000,-0.00006870000000000,-0.00006260000000000,-0.00000002830000000,0.00000006870000000,0.00006680000000000,0.00011600000000000,-0.00000171000000000,-0.00013600000000000,0.06240000000000000,0.00048400000000000,-0.06450000000000000,0.00005840000000000,0.00072800000000000,0.33900000000000000,0.39800000000000000
137000.00000000000000000,-0.00007490000000000,-0.00006870000000000,-0.00006260000000000,-0.00000002820000000,0.00000006380000000,0.00006680000000000,0.00011600000000000,-0.00000172000000000,-0.00013600000000000,0.06250000000000000,0.00048400000000000,-0.06470000000000000,0.00005730000000000,0.00072600000000000,0.33900000000000000,0.39800000000000000
137000.00000000000000000,-0.00007490000000000,-0.00006870000000000,-0.00006260000000000,-0.00000002800000000,0.00000005030000000,0.00006680000000000,0.00011600000000000,-0.00000169000000000,-0.00013600000000000,0.06260000000000000,0.00048400000000000,-0.06480000000000000,0.00005330000000000,0.00072000000000000,0.33900000000000000,0.39900000000000000
137000.00000000000000000,-0.00007490000000000,-0.00006870000000000,-0.00006260000000000,-0.00000002790000000,0.00000003760000000,0.00006680000000000,0.00011600000000000,-0.00000166000000000,-0.00013600000000000,0.06270000000000000,0.00048300000000000,-0.06490000000000000,0.00004920000000000,0.00071400000000000,0.34000000000000000,0.39900000000000000
137000.00000000000000000,-0.00007490000000000,-0.00006870000000000,-0.00006260000000000,-0.00000002780000000,0.00000002250000000,0.00006680000000000,0.00011600000000000,-0.00000161000000000,-0.00013600000000000,0.06290000000000000,0.00048300000000000,-0.06500000000000000,0.00004420000000000,0.00070700000000000,0.34000000000000000,0.40000000000000000
138000.00000000000000000,-0.00007490000000000,-0.00006870000000000,-0.00006250000000000,-0.00000002770000000,0.00000001050000000,0.00006680000000000,0.00011600000000000,-0.00000158000000000,-0.00013600000000000,0.06300000000000000,0.00048300000000000,-0.06520000000000000,0.00004030000000000,0.00070100000000000,0.34000000000000000,0.40000000000000000
138000.00000000000000000,-0.00007490000000000,-0.00006870000000000,-0.00006250000000000,-0.00000002760000000,0.00000000283000000,0.00006690000000000,0.00011600000000000,-0.00000157000000000,-0.00013600000000000,0.06310000000000000,0.00048300000000000,-0.06530000000000000,0.00003820000000000,0.00069700000000000,0.34100000000000000,0.40000000000000000
138000.00000000000000000,-0.00007490000000000,-0.00006870000000000,-0.00006250000000000,-0.00000002750000000,-0.00000000702000000,0.00006690000000000,0.00011600000000000,-0.00000156000000000,-0.00013600000000000,0.06330000000000000,0.00048300000000000,-0.06540000000000000,0.00003520000000000,0.00069300000000000,0.34100000000000000,0.40100000000000000
138000.00000000000000000,-0.00007490000000000,-0.00006870000000000,-0.00006250000000000,-0.00000002740000000,-0.00000001170000000,0.00006690000000000,0.00011600000000000,-0.00000157000000000,-0.00013600000000000,0.06340000000000000,0.00048300000000000,-0.06560000000000000,0.00003410000000000,0.00069100000000000,0.34100000000000000,0.40100000000000000
138000.00000000000000000,-0.00007500000000000,-0.00006870000000000,-0.00006260000000000,-0.00000002740000000,-0.00000001150000000,0.00006690000000000,0.00011600000000000,-0.00000158000000000,-0.00013600000000000,0.06350000000000000,0.00048300000000000,-0.06570000000000000,0.00003430000000000,0.00069200000000000,0.34200000000000000,0.40100000000000000
138000.00000000000000000,-0.00007500000000000,-0.00006880000000000,-0.00006260000000000,-0.00000002750000000,-0.00000000545000000,0.00006690000000000,0.00011600000000000,-0.00000161000000000,-0.00013600000000000,0.06370000000000000,0.00048300000000000,-0.06580000000000000,0.00003610000000000,0.00069400000000000,0.34200000000000000,0.40200000000000000
138000.00000000000000000,-0.00007510000000000,-0.00006880000000000,-0.00006260000000000,-0.00000002760000000,0.00000000855000000,0.00006690000000000,0.00011600000000000,-0.00000165000000000,-0.00013600000000000,0.06380000000000000,0.00048400000000000,-0.06600000000000000,0.00004020000000000,0.00070000000000000,0.34200000000000000,0.40200000000000000
138000.00000000000000000,-0.00007520000000000,-0.00006890000000000,-0.00006270000000000,-0.00000002780000000,0.00000002040000000,0.00006690000000000,0.00011600000000000,-0.00000169000000000,-0.00013600000000000,0.06390000000000000,0.00048400000000000,-0.06610000000000000,0.00004380000000000,0.00070500000000000,0.34200000000000000,0.40300000000000000
138000.00000000000000000,-0.00007520000000000,-0.00006890000000000,-0.00006270000000000,-0.00000002790000000,0.00000003290000000,0.00006700000000000,0.00011600000000000,-0.00000174000000000,-0.00013600000000000,0.06400000000000000,0.00048500000000000,-0.06620000000000000,0.00004760000000000,0.00071200000000000,0.34300000000000000,0.40300000000000000
138000.00000000000000000,-0.00007530000000000,-0.00006910000000000,-0.00006290000000000,-0.00000002780000000,0.00000004510000000,0.00006700000000000,0.00011700000000000,-0.00000183000000000,-0.00013600000000000,0.06420000000000000,0.00048600000000000,-0.06640000000000000,0.00005210000000000,0.00071800000000000,0.34300000000000000,0.40300000000000000
139000.00000000000000000,-0.00007540000000000,-0.00006910000000000,-0.00006290000000000,-0.00000002790000000,0.00000005410000000,0.00006700000000000,0.00011700000000000,-0.00000187000000000,-0.00013600000000000,0.06430000000000000,0.00048600000000000,-0.06650000000000000,0.00005540000000000,0.00072300000000000,0.34300000000000000,0.40400000000000000
139000.00000000000000000,-0.00007550000000000,-0.00006920000000000,-0.00006300000000000,-0.00000002800000000,0.00000006780000000,0.00006700000000000,0.00011700000000000,-0.00000192000000000,-0.00013700000000000,0.06440000000000000,0.00048700000000000,-0.06660000000000000,0.00005990000000000,0.00073000000000000,0.34400000000000000,0.40400000000000000
139000.00000000000000000,-0.00007550000000000,-0.00006920000000000,-0.00006300000000000,-0.00000002810000000,0.00000007210000000,0.00006700000000000,0.00011700000000000,-0.00000194000000000,-0.00013700000000000,0.06460000000000000,0.00048700000000000,-0.06680000000000000,0.00006110000000000,0.00073200000000000,0.34400000000000000,0.40400000000000000
139000.00000000000000000,-0.00007560000000000,-0.00006920000000000,-0.00006300000000000,-0.00000002810000000,0.00000007100000000,0.00006700000000000,0.00011700000000000,-0.00000195000000000,-0.00013700000000000,0.06470000000000000,0.00048700000000000,-0.06690000000000000,0.00006040000000000,0.00073100000000000,0.34400000000000000,0.40500000000000000
139000.00000000000000000,-0.00007560000000000,-0.00006920000000000,-0.00006300000000000,-0.00000002810000000,0.00000007060000000,0.00006710000000000,0.00011700000000000,-0.00000195000000000,-0.00013700000000000,0.06480000000000000,0.00048800000000000,-0.06700000000000000,0.00006010000000000,0.00073100000000000,0.34500000000000000,0.40500000000000000
139000.00000000000000000,-0.00007560000000000,-0.00006920000000000,-0.00006300000000000,-0.00000002790000000,0.00000006270000000,0.00006710000000000,0.00011700000000000,-0.00000194000000000,-0.00013700000000000,0.06500000000000000,0.00048800000000000,-0.06720000000000000,0.00005800000000000,0.00072700000000000,0.34500000000000000,0.40600000000000000
139000.00000000000000000,-0.00007560000000000,-0.00006930000000000,-0.00006300000000000,-0.00000002790000000,0.00000005630000000,0.00006710000000000,0.00011700000000000,-0.00000194000000000,-0.00013700000000000,0.06510000000000000,0.00048800000000000,-0.06730000000000000,0.00005600000000000,0.00072500000000000,0.34500000000000000,0.40600000000000000
139000.00000000000000000,-0.00007560000000000,-0.00006930000000000,-0.00006300000000000,-0.00000002780000000,0.00000004210000000,0.00006710000000000,0.00011700000000000,-0.00000191000000000,-0.00013700000000000,0.06520000000000000,0.00048700000000000,-0.06740000000000000,0.00005200000000000,0.00071800000000000,0.34600000000000000,0.40600000000000000
139000.00000000000000000,-0.00007560000000000,-0.00006920000000000,-0.00006300000000000,-0.00000002760000000,0.00000002420000000,0.00006710000000000,0.00011700000000000,-0.00000187000000000,-0.00013700000000000,0.06540000000000000,0.00048700000000000,-0.06760000000000000,0.00004650000000000,0.00071000000000000,0.34600000000000000,0.40700000000000000
139000.00000000000000000,-0.00007560000000000,-0.00006920000000000,-0.00006290000000000,-0.00000002750000000,0.00000001410000000,0.00006710000000000,0.00011700000000000,-0.00000185000000000,-0.00013700000000000,0.06550000000000000,0.00048700000000000,-0.06770000000000000,0.00004310000000000,0.00070600000000000,0.34600000000000000,0.40700000000000000
140000.00000000000000000,-0.00007560000000000,-0.00006920000000000,-0.00006290000000000,-0.00000002740000000,0.00000000423000000,0.00006710000000000,0.00011700000000000,-0.00000183000000000,-0.00013700000000000,0.06560000000000000,0.00048700000000000,-0.06780000000000000,0.00004000000000000,0.00070100000000000,0.34600000000000000,0.40700000000000000
140000.00000000000000000,-0.00007560000000000,-0.00006920000000000,-0.00006290000000000,-0.00000002740000000,-0.00000000234000000,0.00006720000000000,0.00011700000000000,-0.00000181000000000,-0.00013700000000000,0.06580000000000000,0.00048700000000000,-0.06800000000000000,0.00003780000000000,0.00069700000000000,0.34700000000000000,0.40800000000000000
140000.00000000000000000,-0.00007560000000000,-0.00006920000000000,-0.00006290000000000,-0.00000002730000000,-0.00000000568000000,0.00006720000000000,0.00011700000000000,-0.00000181000000000,-0.00013700000000000,0.06590000000000000,0.00048700000000000,-0.06810000000000000,0.00003650000000000,0.00069500000000000,0.34700000000000000,0.40800000000000000
140000.00000000000000000,-0.00007570000000000,-0.00006930000000000,-0.00006290000000000,-0.00000002720000000,-0.00000001180000000,0.00006720000000000,0.00011700000000000,-0.00000181000000000,-0.00013700000000000,0.06600000000000000,0.00048700000000000,-0.06820000000000000,0.00003490000000000,0.00069200000000000,0.34700000000000000,0.40800000000000000
140000.00000000000000000,-0.00007570000000000,-0.00006930000000000,-0.00006300000000000,-0.00000002730000000,-0.00000000284000000,0.00006720000000000,0.00011700000000000,-0.00000186000000000,-0.00013700000000000,0.06620000000000000,0.00048700000000000,-0.06840000000000000,0.00003780000000000,0.00069800000000000,0.34800000000000000,0.40900000000000000
140000.00000000000000000,-0.00007580000000000,-0.00006940000000000,-0.00006310000000000,-0.00000002730000000,0.00000000854000000,0.00006720000000000,0.00011700000000000,-0.00000193000000000,-0.00013700000000000,0.06630000000000000,0.00048800000000000,-0.06850000000000000,0.00004190000000000,0.00070400000000000,0.34800000000000000,0.40900000000000000
140000.00000000000000000,-0.00007590000000000,-0.00006950000000000,-0.00006310000000000,-0.00000002730000000,0.00000001910000000,0.00006720000000000,0.00011700000000000,-0.00000199000000000,-0.00013700000000000,0.06640000000000000,0.00048900000000000,-0.06860000000000000,0.00004580000000000,0.00070900000000000,0.34800000000000000,0.41000000000000000
140000.00000000000000000,-0.00007600000000000,-0.00006950000000000,-0.00006320000000000,-0.00000002740000000,0.00000003290000000,0.00006720000000000,0.00011700000000000,-0.00000204000000000,-0.00013700000000000,0.06660000000000000,0.00048900000000000,-0.06880000000000000,0.00005000000000000,0.00071600000000000,0.34900000000000000,0.41000000000000000
140000.00000000000000000,-0.00007600000000000,-0.00006960000000000,-0.00006320000000000,-0.00000002750000000,0.00000004050000000,0.00006730000000000,0.00011700000000000,-0.00000206000000000,-0.00013700000000000,0.06670000000000000,0.00049000000000000,-0.06890000000000000,0.00005220000000000,0.00071800000000000,0.34900000000000000,0.41000000000000000
140000.00000000000000000,-0.00007610000000000,-0.00006960000000000,-0.00006330000000000,-0.00000002760000000,0.00000005330000000,0.00006730000000000,0.00011700000000000,-0.00000212000000000,-0.00013700000000000,0.06680000000000000,0.00049000000000000,-0.06900000000000000,0.00005610000000000,0.00072400000000000,0.34900000000000000,0.41100000000000000
141000.00000000000000000,-0.00007620000000000,-0.00006970000000000,-0.00006340000000000,-0.00000002780000000,0.00000006770000000,0.00006730000000000,0.00011700000000000,-0.00000218000000000,-0.00013700000000000,0.06700000000000000,0.00049100000000000,-0.06920000000000000,0.00006060000000000,0.00073100000000000,0.34900000000000000,0.41100000000000000
141000.00000000000000000,-0.00007630000000000,-0.00006980000000000,-0.00006340000000000,-0.00000002780000000,0.00000007180000000,0.00006730000000000,0.00011700000000000,-0.00000222000000000,-0.00013700000000000,0.06710000000000000,0.00049100000000000,-0.06930000000000000,0.00006240000000000,0.00073400000000000,0.35000000000000000,0.41100000000000000
141000.00000000000000000,-0.00007630000000000,-0.00006980000000000,-0.00006340000000000,-0.00000002770000000,0.00000007150000000,0.00006730000000000,0.00011700000000000,-0.00000225000000000,-0.00013800000000000,0.06720000000000000,0.00049200000000000,-0.06950000000000000,0.00006290000000000,0.00073400000000000,0.35000000000000000,0.41200000000000000
141000.00000000000000000,-0.00007630000000000,-0.00006980000000000,-0.00006340000000000,-0.00000002770000000,0.00000006540000000,0.00006730000000000,0.00011700000000000,-0.00000225000000000,-0.00013800000000000,0.06740000000000000,0.00049200000000000,-0.06960000000000000,0.00006110000000000,0.00073100000000000,0.35000000000000000,0.41200000000000000
141000.00000000000000000,-0.00007640000000000,-0.00006980000000000,-0.00006340000000000,-0.00000002760000000,0.00000005920000000,0.00006740000000000,0.00011700000000000,-0.00000223000000000,-0.00013800000000000,0.06750000000000000,0.00049200000000000,-0.06970000000000000,0.00005930000000000,0.00072800000000000,0.35100000000000000,0.41300000000000000
141000.00000000000000000,-0.00007640000000000,-0.00006980000000000,-0.00006340000000000,-0.00000002760000000,0.00000005600000000,0.00006740000000000,0.00011700000000000,-0.00000223000000000,-0.00013800000000000,0.06770000000000000,0.00049200000000000,-0.06990000000000000,0.00005790000000000,0.00072700000000000,0.35100000000000000,0.41300000000000000
141000.00000000000000000,-0.00007640000000000,-0.00006980000000000,-0.00006340000000000,-0.00000002800000000,0.00000005400000000,0.00006740000000000,0.00011700000000000,-0.00000221000000000,-0.00013800000000000,0.06780000000000000,0.00049200000000000,-0.07000000000000000,0.00005560000000000,0.00072600000000000,0.35100000000000000,0.41300000000000000
141000.00000000000000000,-0.00007640000000000,-0.00006980000000000,-0.00006340000000000,-0.00000002760000000,0.00000004030000000,0.00006740000000000,0.00011700000000000,-0.00000218000000000,-0.00013800000000000,0.06790000000000000,0.00049100000000000,-0.07010000000000000,0.00005170000000000,0.00071900000000000,0.35200000000000000,0.41400000000000000
141000.00000000000000000,-0.00007640000000000,-0.00006980000000000,-0.00006340000000000,-0.00000002750000000,0.00000002050000000,0.00006740000000000,0.00011700000000000,-0.00000214000000000,-0.00013800000000000,0.06810000000000000,0.00049100000000000,-0.07030000000000000,0.00004570000000000,0.00071000000000000,0.35200000000000000,0.41400000000000000
141000.00000000000000000,-0.00007640000000000,-0.00006980000000000,-0.00006330000000000,-0.00000002700000000,0.00000000150000000,0.00006740000000000,0.00011700000000000,-0.00000211000000000,-0.00013800000000000,0.06820000000000000,0.00049100000000000,-0.07040000000000000,0.00004090000000000,0.00070200000000000,0.35200000000000000,0.41400000000000000
142000.00000000000000000,-0.00007640000000000,-0.00006980000000000,-0.00006340000000000,-0.00000002670000000,-0.00000000277000000,0.00006740000000000,0.00011700000000000,-0.00000213000000000,-0.00013800000000000,0.06830000000000000,0.00049100000000000,-0.07050000000000000,0.00004050000000000,0.00070100000000000,0.35200000000000000,0.41500000000000000
142000.00000000000000000,-0.00007650000000000,-0.00006990000000000,-0.00006340000000000,-0.00000002690000000,-0.00000000175000000,0.00006750000000000,0.00011700000000000,-0.00000216000000000,-0.00013800000000000,0.06850000000000000,0.00049200000000000,-0.07070000000000000,0.00004040000000000,0.00070100000000000,0.35300000000000000,0.41500000000000000
142000.00000000000000000,-0.00007650000000000,-0.00006990000000000,-0.00006340000000000,-0.00000002700000000,-0.00000000147000000,0.00006750000000000,0.00011700000000000,-0.00000214000000000,-0.00013800000000000,0.06860000000000000,0.00049200000000000,-0.07080000000000000,0.00003980000000000,0.00070100000000000,0.35300000000000000,0.41600000000000000
142000.00000000000000000,-0.00007650000000000,-0.00006990000000000,-0.00006340000000000,-0.00000002690000000,-0.00000000101000000,0.00006750000000000,0.00011700000000000,-0.00000213000000000,-0.00013800000000000,0.06870000000000000,0.00049200000000000,-0.07090000000000000,0.00003950000000000,0.00070100000000000,0.35300000000000000,0.41600000000000000
142000.00000000000000000,-0.00007650000000000,-0.00006990000000000,-0.00006340000000000,-0.00000002700000000,0.00000000530000000,0.00006750000000000,0.00011700000000000,-0.00000215000000000,-0.00013800000000000,0.06890000000000000,0.00049200000000000,-0.07110000000000000,0.00004150000000000,0.00070300000000000,0.35400000000000000,0.41600000000000000
142000.00000000000000000,-0.00007660000000000,-0.00007000000000000,-0.00006350000000000,-0.00000002720000000,0.00000002070000000,0.00006750000000000,0.00011700000000000,-0.00000224000000000,-0.00013800000000000,0.06900000000000000,0.00049300000000000,-0.07120000000000000,0.00004710000000000,0.00071100000000000,0.35400000000000000,0.41700000000000000
142000.00000000000000000,-0.00007670000000000,-0.00007010000000000,-0.00006360000000000,-0.00000002720000000,0.00000003500000000,0.00006750000000000,0.00011800000000000,-0.00000231000000000,-0.00013800000000000,0.06910000000000000,0.00049400000000000,-0.07140000000000000,0.00005230000000000,0.00071900000000000,0.35400000000000000,0.41700000000000000
142000.00000000000000000,-0.00007680000000000,-0.00007020000000000,-0.00006370000000000,-0.00000002730000000,0.00000004670000000,0.00006750000000000,0.00011800000000000,-0.00000237000000000,-0.00013800000000000,0.06930000000000000,0.00049400000000000,-0.07150000000000000,0.00005680000000000,0.00072600000000000,0.35500000000000000,0.41700000000000000
142000.00000000000000000,-0.00007690000000000,-0.00007020000000000,-0.00006370000000000,-0.00000002770000000,0.00000005910000000,0.00006760000000000,0.00011800000000000,-0.00000240000000000,-0.00013800000000000,0.06940000000000000,0.00049500000000000,-0.07160000000000000,0.00005970000000000,0.00073200000000000,0.35500000000000000,0.41800000000000000
142000.00000000000000000,-0.00007700000000000,-0.00007030000000000,-0.00006380000000000,-0.00000002750000000,0.00000005900000000,0.00006760000000000,0.00011800000000000,-0.00000247000000000,-0.00013800000000000,0.06960000000000000,0.00049500000000000,-0.07180000000000000,0.00006020000000000,0.00073000000000000,0.35500000000000000,0.41800000000000000
143000.00000000000000000,-0.00007700000000000,-0.00007030000000000,-0.00006380000000000,-0.00000002730000000,0.00000006570000000,0.00006760000000000,0.00011800000000000,-0.00000245000000000,-0.00013800000000000,0.06970000000000000,0.00049500000000000,-0.07190000000000000,0.00006290000000000,0.00073200000000000,0.35500000000000000,0.41800000000000000
143000.00000000000000000,-0.00007700000000000,-0.00007040000000000,-0.00006380000000000,-0.00000002750000000,0.00000007180000000,0.00006760000000000,0.00011800000000000,-0.00000251000000000,-0.00013800000000000,0.06980000000000000,0.00049600000000000,-0.07200000000000000,0.00006510000000000,0.00073600000000000,0.35600000000000000,0.41900000000000000
143000.00000000000000000,-0.00007710000000000,-0.00007040000000000,-0.00006390000000000,-0.00000002750000000,0.00000006870000000,0.00006760000000000,0.00011800000000000,-0.00000253000000000,-0.00013800000000000,0.07000000000000000,0.00049600000000000,-0.07220000000000000,0.00006430000000000,0.00073500000000000,0.35600000000000000,0.41900000000000000
143000.00000000000000000,-0.00007710000000000,-0.00007040000000000,-0.00006390000000000,-0.00000002760000000,0.00000006270000000,0.00006760000000000,0.00011800000000000,-0.00000254000000000,-0.00013800000000000,0.07010000000000000,0.00049600000000000,-0.07230000000000000,0.00006210000000000,0.00073400000000000,0.35600000000000000,0.42000000000000000
143000.00000000000000000,-0.00007710000000000,-0.00007040000000000,-0.00006380000000000,-0.00000002720000000,0.00000004980000000,0.00006770000000000,0.00011800000000000,-0.00000250000000000,-0.00013800000000000,0.07020000000000000,0.00049600000000000,-0.07240000000000000,0.00005840000000000,0.00072800000000000,0.35700000000000000,0.42000000000000000
143000.00000000000000000,-0.00007710000000000,-0.00007040000000000,-0.00006380000000000,-0.00000002720000000,0.00000004380000000,0.00006770000000000,0.00011800000000000,-0.00000249000000000,-0.00013800000000000,0.07040000000000000,0.00049600000000000,-0.07260000000000000,0.00005630000000000,0.00072400000000000,0.35700000000000000,0.42000000000000000
143000.00000000000000000,-0.00007710000000000,-0.00007040000000000,-0.00006380000000000,-0.00000002720000000,0.00000003790000000,0.00006770000000000,0.00011800000000000,-0.00000248000000000,-0.00013800000000000,0.07050000000000000,0.00049600000000000,-0.07270000000000000,0.00005420000000000,0.00072100000000000,0.35700000000000000,0.42100000000000000
143000.00000000000000000,-0.00007710000000000,-0.00007040000000000,-0.00006380000000000,-0.00000002700000000,0.00000002430000000,0.00006770000000000,0.00011800000000000,-0.00000241000000000,-0.00013800000000000,0.07060000000000000,0.00049500000000000,-0.07290000000000000,0.00004960000000000,0.00071500000000000,0.35800000000000000,0.42100000000000000
143000.00000000000000000,-0.00007710000000000,-0.00007040000000000,-0.00006380000000000,-0.00000002690000000,0.00000001470000000,0.00006770000000000,0.00011800000000000,-0.00000239000000000,-0.00013800000000000,0.07080000000000000,0.00049500000000000,-0.07300000000000000,0.00004610000000000,0.00071100000000000,0.35800000000000000,0.42100000000000000
143000.00000000000000000,-0.00007710000000000,-0.00007040000000000,-0.00006380000000000,-0.00000002680000000,0.00000000441000000,0.00006770000000000,0.00011800000000000,-0.00000241000000000,-0.00013900000000000,0.07090000000000000,0.00049500000000000,-0.07310000000000000,0.00004330000000000,0.00070700000000000,0.35800000000000000,0.42200000000000000
144000.00000000000000000,-0.00007720000000000,-0.00007040000000000,-0.00006380000000000,-0.00000002670000000,0.00000000181000000,0.00006770000000000,0.00011800000000000,-0.00000243000000000,-0.00013900000000000,0.07110000000000000,0.00049600000000000,-0.07330000000000000,0.00004320000000000,0.00070700000000000,0.35800000000000000,0.42200000000000000
144000.00000000000000000,-0.00007720000000000,-0.00007050000000000,-0.00006380000000000,-0.00000002660000000,0.00000000457000000,0.00006780000000000,0.00011800000000000,-0.00000245000000000,-0.00013900000000000,0.07120000000000000,0.00049600000000000,-0.07340000000000000,0.00004440000000000,0.00070800000000000,0.35900000000000000,0.42300000000000000
144000.00000000000000000,-0.00007730000000000,-0.00007050000000000,-0.00006390000000000,-0.00000002650000000,0.00000000155000000,0.00006780000000000,0.00011800000000000,-0.00000246000000000,-0.00013900000000000,0.07130000000000000,0.00049600000000000,-0.07360000000000000,0.00004350000000000,0.00070600000000000,0.35900000000000000,0.42300000000000000
144000.00000000000000000,-0.00007730000000000,-0.00007050000000000,-0.00006390000000000,-0.00000002670000000,0.00000000579000000,0.00006780000000000,0.00011800000000000,-0.00000247000000000,-0.00013900000000000,0.07150000000000000,0.00049600000000000,-0.07370000000000000,0.00004420000000000,0.00070700000000000,0.35900000000000000,0.42300000000000000
144000.00000000000000000,-0.00007740000000000,-0.00007060000000000,-0.00006390000000000,-0.00000002710000000,0.00000001930000000,0.00006780000000000,0.00011800000000000,-0.00000250000000000,-0.00013900000000000,0.07160000000000000,0.00049700000000000,-0.07380000000000000,0.00004780000000000,0.00071300000000000,0.36000000000000000,0.42400000000000000
144000.00000000000000000,-0.00007740000000000,-0.00007060000000000,-0.00006400000000000,-0.00000002710000000,0.00000003210000000,0.00006780000000000,0.00011800000000000,-0.00000257000000000,-0.00013900000000000,0.07170000000000000,0.00049700000000000,-0.07400000000000000,0.00005270000000000,0.00071900000000000,0.36000000000000000,0.42400000000000000
144000.00000000000000000,-0.00007760000000000,-0.00007070000000000,-0.00006410000000000,-0.00000002710000000,0.00000004550000000,0.00006780000000000,0.00011800000000000,-0.00000266000000000,-0.00013900000000000,0.07190000000000000,0.00049800000000000,-0.07410000000000000,0.00005790000000000,0.00072700000000000,0.36000000000000000,0.42400000000000000
144000.00000000000000000,-0.00007760000000000,-0.00007080000000000,-0.00006410000000000,-0.00000002710000000,0.00000005240000000,0.00006790000000000,0.00011800000000000,-0.00000270000000000,-0.00013900000000000,0.07200000000000000,0.00049900000000000,-0.07430000000000000,0.00006060000000000,0.00073100000000000,0.36100000000000000,0.42500000000000000
144000.00000000000000000,-0.00007770000000000,-0.00007080000000000,-0.00006420000000000,-0.00000002710000000,0.00000005400000000,0.00006790000000000,0.00011800000000000,-0.00000272000000000,-0.00013900000000000,0.07220000000000000,0.00049900000000000,-0.07440000000000000,0.00006160000000000,0.00073100000000000,0.36100000000000000,0.42500000000000000
144000.00000000000000000,-0.00007770000000000,-0.00007090000000000,-0.00006420000000000,-0.00000002720000000,0.00000006380000000,0.00006790000000000,0.00011800000000000,-0.00000276000000000,-0.00013900000000000,0.07230000000000000,0.00050000000000000,-0.07450000000000000,0.00006450000000000,0.00073600000000000,0.36100000000000000,0.42600000000000000
145000.00000000000000000,-0.00007780000000000,-0.00007090000000000,-0.00006420000000000,-0.00000002740000000,0.00000007090000000,0.00006790000000000,0.00011800000000000,-0.00000278000000000,-0.00013900000000000,0.07240000000000000,0.00050000000000000,-0.07470000000000000,0.00006630000000000,0.00073900000000000,0.36100000000000000,0.42600000000000000
145000.00000000000000000,-0.00007780000000000,-0.00007090000000000,-0.00006430000000000,-0.00000002740000000,0.00000007190000000,0.00006790000000000,0.00011800000000000,-0.00000279000000000,-0.00013900000000000,0.07260000000000000,0.00050000000000000,-0.07480000000000000,0.00006660000000000,0.00073900000000000,0.36200000000000000,0.42600000000000000
145000.00000000000000000,-0.00007780000000000,-0.00007090000000000,-0.00006420000000000,-0.00000002730000000,0.00000006310000000,0.00006790000000000,0.00011800000000000,-0.00000277000000000,-0.00013900000000000,0.07270000000000000,0.00050000000000000,-0.07490000000000000,0.00006370000000000,0.00073400000000000,0.36200000000000000,0.42700000000000000
145000.00000000000000000,-0.00007780000000000,-0.00007100000000000,-0.00006420000000000,-0.00000002700000000,0.00000004910000000,0.00006790000000000,0.00011800000000000,-0.00000276000000000,-0.00013900000000000,0.07290000000000000,0.00050000000000000,-0.07510000000000000,0.00005990000000000,0.00072800000000000,0.36200000000000000,0.42700000000000000
145000.00000000000000000,-0.00007790000000000,-0.00007100000000000,-0.00006420000000000,-0.00000002700000000,0.00000004390000000,0.00006800000000000,0.00011800000000000,-0.00000276000000000,-0.00013900000000000,0.07300000000000000,0.00050000000000000,-0.07520000000000000,0.00005840000000000,0.00072700000000000,0.36300000000000000,0.42700000000000000
145000.00000000000000000,-0.00007790000000000,-0.00007100000000000,-0.00006430000000000,-0.00000002690000000,0.00000003770000000,0.00006800000000000,0.00011800000000000,-0.00000276000000000,-0.00013900000000000,0.07310000000000000,0.00050000000000000,-0.07540000000000000,0.00005650000000000,0.00072500000000000,0.36300000000000000,0.42800000000000000
145000.00000000000000000,-0.00007790000000000,-0.00007100000000000,-0.00006420000000000,-0.00000002680000000,0.00000002920000000,0.00006800000000000,0.00011800000000000,-0.00000275000000000,-0.00013900000000000,0.07330000000000000,0.00050000000000000,-0.07550000000000000,0.00005390000000000,0.00072200000000000,0.36300000000000000,0.42800000000000000
145000.00000000000000000,-0.00007790000000000,-0.00007100000000000,-0.00006420000000000,-0.00000002680000000,0.00000001940000000,0.00006800000000000,0.00011800000000000,-0.00000272000000000,-0.00013900000000000,0.07340000000000000,0.00050000000000000,-0.07570000000000000,0.00004990000000000,0.00071700000000000,0.36400000000000000,0.42900000000000000
145000.00000000000000000,-0.00007790000000000,-0.00007090000000000,-0.00006420000000000,-0.00000002650000000,0.00000000494000000,0.00006800000000000,0.00011800000000000,-0.00000267000000000,-0.00013900000000000,0.07360000000000000,0.00049900000000000,-0.07580000000000000,0.00004510000000000,0.00070800000000000,0.36400000000000000,0.42900000000000000
145000.00000000000000000,-0.00007790000000000,-0.00007100000000000,-0.00006420000000000,-0.00000002650000000,0.00000000308000000,0.00006800000000000,0.00011800000000000,-0.00000267000000000,-0.00013900000000000,0.07370000000000000,0.00050000000000000,-0.07590000000000000,0.00004450000000000,0.00070800000000000,0.36400000000000000,0.42900000000000000
146000.00000000000000000,-0.00007800000000000,-0.00007100000000000,-0.00006420000000000,-0.00000002650000000,0.00000000718000000,0.00006800000000000,0.00011800000000000,-0.00000271000000000,-0.00013900000000000,0.07380000000000000,0.00050000000000000,-0.07610000000000000,0.00004590000000000,0.00071000000000000,0.36400000000000000,0.43000000000000000
146000.00000000000000000,-0.00007800000000000,-0.00007110000000000,-0.00006430000000000,-0.00000002650000000,0.00000000819000000,0.00006810000000000,0.00011800000000000,-0.00000275000000000,-0.00014000000000000,0.07400000000000000,0.00050000000000000,-0.07620000000000000,0.00004700000000000,0.00071200000000000,0.36500000000000000,0.43000000000000000
146000.00000000000000000,-0.00007810000000000,-0.00007110000000000,-0.00006430000000000,-0.00000002650000000,0.00000000955000000,0.00006810000000000,0.00011900000000000,-0.00000277000000000,-0.00014000000000000,0.07410000000000000,0.00050100000000000,-0.07640000000000000,0.00004790000000000,0.00071300000000000,0.36500000000000000,0.43000000000000000
146000.00000000000000000,-0.00007810000000000,-0.00007120000000000,-0.00006430000000000,-0.00000002660000000,0.00000001480000000,0.00006810000000000,0.00011900000000000,-0.00000280000000000,-0.00014000000000000,0.07430000000000000,0.00050100000000000,-0.07650000000000000,0.00004960000000000,0.00071600000000000,0.36500000000000000,0.43100000000000000
146000.00000000000000000,-0.00007820000000000,-0.00007120000000000,-0.00006440000000000,-0.00000002660000000,0.00000002550000000,0.00006810000000000,0.00011900000000000,-0.00000285000000000,-0.00014000000000000,0.07440000000000000,0.00050200000000000,-0.07660000000000000,0.00005360000000000,0.00072000000000000,0.36600000000000000,0.43100000000000000
146000.00000000000000000,-0.00007830000000000,-0.00007130000000000,-0.00006450000000000,-0.00000002690000000,0.00000004160000000,0.00006810000000000,0.00011900000000000,-0.00000290000000000,-0.00014000000000000,0.07450000000000000,0.00050200000000000,-0.07680000000000000,0.00005830000000000,0.00072700000000000,0.36600000000000000,0.43100000000000000
146000.00000000000000000,-0.00007830000000000,-0.00007130000000000,-0.00006450000000000,-0.00000002710000000,0.00000005420000000,0.00006810000000000,0.00011900000000000,-0.00000293000000000,-0.00014000000000000,0.07470000000000000,0.00050300000000000,-0.07690000000000000,0.00006180000000000,0.00073200000000000,0.36600000000000000,0.43200000000000000
146000.00000000000000000,-0.00007840000000000,-0.00007140000000000,-0.00006450000000000,-0.00000002720000000,0.00000005790000000,0.00006810000000000,0.00011900000000000,-0.00000297000000000,-0.00014000000000000,0.07480000000000000,0.00050300000000000,-0.07710000000000000,0.00006350000000000,0.00073400000000000,0.36700000000000000,0.43200000000000000
146000.00000000000000000,-0.00007850000000000,-0.00007140000000000,-0.00006460000000000,-0.00000002710000000,0.00000005980000000,0.00006820000000000,0.00011900000000000,-0.00000300000000000,-0.00014000000000000,0.07500000000000000,0.00050300000000000,-0.07720000000000000,0.00006490000000000,0.00073600000000000,0.36700000000000000,0.43300000000000000
146000.00000000000000000,-0.00007850000000000,-0.00007150000000000,-0.00006460000000000,-0.00000002710000000,0.00000006480000000,0.00006820000000000,0.00011900000000000,-0.00000305000000000,-0.00014000000000000,0.07510000000000000,0.00050400000000000,-0.07730000000000000,0.00006720000000000,0.00073900000000000,0.36700000000000000,0.43300000000000000
147000.00000000000000000,-0.00007860000000000,-0.00007150000000000,-0.00006470000000000,-0.00000002710000000,0.00000006670000000,0.00006820000000000,0.00011900000000000,-0.00000308000000000,-0.00014000000000000,0.07520000000000000,0.00050400000000000,-0.07750000000000000,0.00006830000000000,0.00074100000000000,0.36700000000000000,0.43300000000000000
147000.00000000000000000,-0.00007860000000000,-0.00007150000000000,-0.00006470000000000,-0.00000002700000000,0.00000006230000000,0.00006820000000000,0.00011900000000000,-0.00000308000000000,-0.00014000000000000,0.07540000000000000,0.00050400000000000,-0.07760000000000000,0.00006640000000000,0.00073800000000000,0.36800000000000000,0.43400000000000000
147000.00000000000000000,-0.00007860000000000,-0.00007150000000000,-0.00006460000000000,-0.00000002700000000,0.00000005460000000,0.00006820000000000,0.00011900000000000,-0.00000304000000000,-0.00014000000000000,0.07550000000000000,0.00050400000000000,-0.07780000000000000,0.00006320000000000,0.00073400000000000,0.36800000000000000,0.43400000000000000
147000.00000000000000000,-0.00007860000000000,-0.00007150000000000,-0.00006460000000000,-0.00000002700000000,0.00000004520000000,0.00006820000000000,0.00011900000000000,-0.00000300000000000,-0.00014000000000000,0.07570000000000000,0.00050400000000000,-0.07790000000000000,0.00005960000000000,0.00072900000000000,0.36800000000000000,0.43400000000000000
147000.00000000000000000,-0.00007860000000000,-0.00007150000000000,-0.00006460000000000,-0.00000002680000000,0.00000003870000000,0.00006830000000000,0.00011900000000000,-0.00000301000000000,-0.00014000000000000,0.07580000000000000,0.00050400000000000,-0.07810000000000000,0.00005790000000000,0.00072600000000000,0.36900000000000000,0.43500000000000000
147000.00000000000000000,-0.00007870000000000,-0.00007160000000000,-0.00006470000000000,-0.00000002660000000,0.00000003160000000,0.00006830000000000,0.00011900000000000,-0.00000303000000000,-0.00014000000000000,0.07590000000000000,0.00050400000000000,-0.07820000000000000,0.00005640000000000,0.00072500000000000,0.36900000000000000,0.43500000000000000
147000.00000000000000000,-0.00007870000000000,-0.00007160000000000,-0.00006460000000000,-0.00000002640000000,0.00000002100000000,0.00006830000000000,0.00011900000000000,-0.00000301000000000,-0.00014000000000000,0.07610000000000000,0.00050400000000000,-0.07830000000000000,0.00005310000000000,0.00072100000000000,0.36900000000000000,0.43600000000000000
147000.00000000000000000,-0.00007870000000000,-0.00007160000000000,-0.00006460000000000,-0.00000002630000000,0.00000000939000000,0.00006830000000000,0.00011900000000000,-0.00000299000000000,-0.00014000000000000,0.07620000000000000,0.00050400000000000,-0.07850000000000000,0.00004940000000000,0.00071600000000000,0.36900000000000000,0.43600000000000000
147000.00000000000000000,-0.00007870000000000,-0.00007160000000000,-0.00006460000000000,-0.00000002630000000,0.00000000464000000,0.00006830000000000,0.00011900000000000,-0.00000298000000000,-0.00014000000000000,0.07640000000000000,0.00050400000000000,-0.07860000000000000,0.00004740000000000,0.00071300000000000,0.37000000000000000,0.43600000000000000
147000.00000000000000000,-0.00007870000000000,-0.00007160000000000,-0.00006460000000000,-0.00000002640000000,0.00000000772000000,0.00006830000000000,0.00011900000000000,-0.00000298000000000,-0.00014000000000000,0.07650000000000000,0.00050400000000000,-0.07880000000000000,0.00004780000000000,0.00071400000000000,0.37000000000000000,0.43700000000000000
148000.00000000000000000,-0.00007880000000000,-0.00007160000000000,-0.00006470000000000,-0.00000002640000000,0.00000001110000000,0.00006830000000000,0.00011900000000000,-0.00000300000000000,-0.00014000000000000,0.07660000000000000,0.00050400000000000,-0.07890000000000000,0.00004910000000000,0.00071500000000000,0.37000000000000000,0.43700000000000000
148000.00000000000000000,-0.00007880000000000,-0.00007170000000000,-0.00006470000000000,-0.00000002640000000,0.00000001230000000,0.00006840000000000,0.00011900000000000,-0.00000303000000000,-0.00014000000000000,0.07680000000000000,0.00050500000000000,-0.07910000000000000,0.00004970000000000,0.00071500000000000,0.37100000000000000,0.43700000000000000
148000.00000000000000000,-0.00007890000000000,-0.00007170000000000,-0.00006470000000000,-0.00000002650000000,0.00000001560000000,0.00006840000000000,0.00011900000000000,-0.00000307000000000,-0.00014100000000000,0.07690000000000000,0.00050500000000000,-0.07920000000000000,0.00005120000000000,0.00071800000000000,0.37100000000000000,0.43800000000000000
148000.00000000000000000,-0.00007890000000000,-0.00007180000000000,-0.00006480000000000,-0.00000002650000000,0.00000002390000000,0.00006840000000000,0.00011900000000000,-0.00000312000000000,-0.00014100000000000,0.07710000000000000,0.00050600000000000,-0.07930000000000000,0.00005470000000000,0.00072300000000000,0.37100000000000000,0.43800000000000000
148000.00000000000000000,-0.00007900000000000,-0.00007190000000000,-0.00006490000000000,-0.00000002670000000,0.00000003610000000,0.00006840000000000,0.00011900000000000,-0.00000318000000000,-0.00014100000000000,0.07720000000000000,0.00050600000000000,-0.07950000000000000,0.00005920000000000,0.00072900000000000,0.37200000000000000,0.43800000000000000
148000.00000000000000000,-0.00007910000000000,-0.00007190000000000,-0.00006490000000000,-0.00000002680000000,0.00000005080000000,0.00006840000000000,0.00011900000000000,-0.00000324000000000,-0.00014100000000000,0.07740000000000000,0.00050700000000000,-0.07960000000000000,0.00006390000000000,0.00073500000000000,0.37200000000000000,0.43900000000000000
148000.00000000000000000,-0.00007910000000000,-0.00007190000000000,-0.00006490000000000,-0.00000002690000000,0.00000005590000000,0.00006840000000000,0.00011900000000000,-0.00000324000000000,-0.00014100000000000,0.07750000000000000,0.00050700000000000,-0.07980000000000000,0.00006530000000000,0.00073600000000000,0.37200000000000000,0.43900000000000000
148000.00000000000000000,-0.00007920000000000,-0.00007200000000000,-0.00006500000000000,-0.00000002690000000,0.00000005670000000,0.00006840000000000,0.00011900000000000,-0.00000326000000000,-0.00014100000000000,0.07760000000000000,0.00050700000000000,-0.07990000000000000,0.00006560000000000,0.00073600000000000,0.37200000000000000,0.44000000000000000
148000.00000000000000000,-0.00007920000000000,-0.00007200000000000,-0.00006500000000000,-0.00000002700000000,0.00000006230000000,0.00006850000000000,0.00011900000000000,-0.00000329000000000,-0.00014100000000000,0.07780000000000000,0.00050800000000000,-0.08010000000000000,0.00006740000000000,0.00073900000000000,0.37300000000000000,0.44000000000000000
148000.00000000000000000,-0.00007930000000000,-0.00007210000000000,-0.00006510000000000,-0.00000002710000000,0.00000006650000000,0.00006850000000000,0.00011900000000000,-0.00000333000000000,-0.00014100000000000,0.07790000000000000,0.00050800000000000,-0.08020000000000000,0.00006920000000000,0.00074200000000000,0.37300000000000000,0.44000000000000000
149000.00000000000000000,-0.00007940000000000,-0.00007210000000000,-0.00006510000000000,-0.00000002700000000,0.00000006370000000,0.00006850000000000,0.00011900000000000,-0.00000336000000000,-0.00014100000000000,0.07810000000000000,0.00050900000000000,-0.08030000000000000,0.00006920000000000,0.00074200000000000,0.37300000000000000,0.44100000000000000
149000.00000000000000000,-0.00007940000000000,-0.00007210000000000,-0.00006510000000000,-0.00000002680000000,0.00000005620000000,0.00006850000000000,0.00011900000000000,-0.00000335000000000,-0.00014100000000000,0.07820000000000000,0.00050900000000000,-0.08050000000000000,0.00006670000000000,0.00073900000000000,0.37400000000000000,0.44100000000000000
149000.00000000000000000,-0.00007940000000000,-0.00007210000000000,-0.00006510000000000,-0.00000002670000000,0.00000004440000000,0.00006850000000000,0.00011900000000000,-0.00000332000000000,-0.00014100000000000,0.07840000000000000,0.00050800000000000,-0.08060000000000000,0.00006270000000000,0.00073300000000000,0.37400000000000000,0.44100000000000000
149000.00000000000000000,-0.00007940000000000,-0.00007210000000000,-0.00006500000000000,-0.00000002660000000,0.00000003660000000,0.00006850000000000,0.00011900000000000,-0.00000330000000000,-0.00014100000000000,0.07850000000000000,0.00050800000000000,-0.08080000000000000,0.00005980000000000,0.00072800000000000,0.37400000000000000,0.44200000000000000
149000.00000000000000000,-0.00007940000000000,-0.00007210000000000,-0.00006500000000000,-0.00000002660000000,0.00000003330000000,0.00006860000000000,0.00011900000000000,-0.00000328000000000,-0.00014100000000000,0.07860000000000000,0.00050800000000000,-0.08090000000000000,0.00005790000000000,0.00072600000000000,0.37400000000000000,0.44200000000000000
149000.00000000000000000,-0.00007940000000000,-0.00007210000000000,-0.00006500000000000,-0.00000002660000000,0.00000002840000000,0.00006860000000000,0.00011900000000000,-0.00000326000000000,-0.00014100000000000,0.07880000000000000,0.00050800000000000,-0.08110000000000000,0.00005600000000000,0.00072500000000000,0.37500000000000000,0.44300000000000000
149000.00000000000000000,-0.00007940000000000,-0.00007210000000000,-0.00006500000000000,-0.00000002640000000,0.00000001700000000,0.00006860000000000,0.00011900000000000,-0.00000326000000000,-0.00014100000000000,0.07890000000000000,0.00050800000000000,-0.08120000000000000,0.00005280000000000,0.00072000000000000,0.37500000000000000,0.44300000000000000
149000.00000000000000000,-0.00007940000000000,-0.00007210000000000,-0.00006500000000000,-0.00000002620000000,0.00000000792000000,0.00006860000000000,0.00011900000000000,-0.00000326000000000,-0.00014100000000000,0.07910000000000000,0.00050800000000000,-0.08140000000000000,0.00005020000000000,0.00071700000000000,0.37500000000000000,0.44300000000000000
149000.00000000000000000,-0.00007950000000000,-0.00007220000000000,-0.00006510000000000,-0.00000002600000000,0.00000000512000000,0.00006860000000000,0.00011900000000000,-0.00000329000000000,-0.00014100000000000,0.07920000000000000,0.00050800000000000,-0.08150000000000000,0.00005020000000000,0.00071700000000000,0.37600000000000000,0.44400000000000000
149000.00000000000000000,-0.00007950000000000,-0.00007220000000000,-0.00006510000000000,-0.00000002610000000,0.00000000842000000,0.00006860000000000,0.00012000000000000,-0.00000331000000000,-0.00014100000000000,0.07940000000000000,0.00050900000000000,-0.08160000000000000,0.00005130000000000,0.00071800000000000,0.37600000000000000,0.44400000000000000
150000.00000000000000000,-0.00007960000000000,-0.00007220000000000,-0.00006510000000000,-0.00000002620000000,0.00000001280000000,0.00006860000000000,0.00012000000000000,-0.00000332000000000,-0.00014100000000000,0.07950000000000000,0.00050900000000000,-0.08180000000000000,0.00005240000000000,0.00071900000000000,0.37600000000000000,0.44400000000000000
150000.00000000000000000,-0.00007960000000000,-0.00007230000000000,-0.00006510000000000,-0.00000002640000000,0.00000001830000000,0.00006870000000000,0.00012000000000000,-0.00000332000000000,-0.00014100000000000,0.07960000000000000,0.00050900000000000,-0.08190000000000000,0.00005340000000000,0.00072100000000000,0.37700000000000000,0.44500000000000000
150000.00000000000000000,-0.00007970000000000,-0.00007230000000000,-0.00006520000000000,-0.00000002650000000,0.00000002470000000,0.00006870000000000,0.00012000000000000,-0.00000336000000000,-0.00014100000000000,0.07980000000000000,0.00050900000000000,-0.08210000000000000,0.00005540000000000,0.00072300000000000,0.37700000000000000,0.44500000000000000
150000.00000000000000000,-0.00007980000000000,-0.00007240000000000,-0.00006520000000000,-0.00000002660000000,0.00000003390000000,0.00006870000000000,0.00012000000000000,-0.00000343000000000,-0.00014200000000000,0.07990000000000000,0.00051000000000000,-0.08220000000000000,0.00005950000000000,0.00072800000000000,0.37700000000000000,0.44500000000000000
150000.00000000000000000,-0.00007990000000000,-0.00007250000000000,-0.00006530000000000,-0.00000002660000000,0.00000004700000000,0.00006870000000000,0.00012000000000000,-0.00000350000000000,-0.00014200000000000,0.08010000000000000,0.00051100000000000,-0.08240000000000000,0.00006470000000000,0.00073600000000000,0.37700000000000000,0.44600000000000000
150000.00000000000000000,-0.00007990000000000,-0.00007250000000000,-0.00006540000000000,-0.00000002670000000,0.00000005350000000,0.00006870000000000,0.00012000000000000,-0.00000355000000000,-0.00014200000000000,0.08020000000000000,0.00051100000000000,-0.08250000000000000,0.00006770000000000,0.00074000000000000,0.37800000000000000,0.44600000000000000
150000.00000000000000000,-0.00008000000000000,-0.00007260000000000,-0.00006540000000000,-0.00000002670000000,0.00000005530000000,0.00006870000000000,0.00012000000000000,-0.00000357000000000,-0.00014200000000000,0.08040000000000000,0.00051200000000000,-0.08270000000000000,0.00006850000000000,0.00074000000000000,0.37800000000000000,0.44700000000000000
150000.00000000000000000,-0.00008000000000000,-0.00007260000000000,-0.00006540000000000,-0.00000002690000000,0.00000005990000000,0.00006870000000000,0.00012000000000000,-0.00000357000000000,-0.00014200000000000,0.08050000000000000,0.00051200000000000,-0.08280000000000000,0.00006900000000000,0.00074100000000000,0.37800000000000000,0.44700000000000000
150000.00000000000000000,-0.00008000000000000,-0.00007260000000000,-0.00006540000000000,-0.00000002700000000,0.00000006400000000,0.00006880000000000,0.00012000000000000,-0.00000359000000000,-0.00014200000000000,0.08070000000000000,0.00051200000000000,-0.08300000000000000,0.00006990000000000,0.00074200000000000,0.37900000000000000,0.44700000000000000
150000.00000000000000000,-0.00008010000000000,-0.00007270000000000,-0.00006540000000000,-0.00000002690000000,0.00000006340000000,0.00006880000000000,0.00012000000000000,-0.00000360000000000,-0.00014200000000000,0.08080000000000000,0.00051200000000000,-0.08310000000000000,0.00007010000000000,0.00074200000000000,0.37900000000000000,0.44800000000000000
151000.00000000000000000,-0.00008010000000000,-0.00007270000000000,-0.00006550000000000,-0.00000002680000000,0.00000005750000000,0.00006880000000000,0.00012000000000000,-0.00000361000000000,-0.00014200000000000,0.08100000000000000,0.00051200000000000,-0.08330000000000000,0.00006830000000000,0.00074000000000000,0.37900000000000000,0.44800000000000000
151000.00000000000000000,-0.00008010000000000,-0.00007270000000000,-0.00006550000000000,-0.00000002670000000,0.00000004710000000,0.00006880000000000,0.00012000000000000,-0.00000360000000000,-0.00014200000000000,0.08110000000000000,0.00051200000000000,-0.08340000000000000,0.00006540000000000,0.00073600000000000,0.37900000000000000,0.44800000000000000
151000.00000000000000000,-0.00008010000000000,-0.00007270000000000,-0.00006550000000000,-0.00000002650000000,0.00000003610000000,0.00006880000000000,0.00012000000000000,-0.00000359000000000,-0.00014200000000000,0.08120000000000000,0.00051200000000000,-0.08350000000000000,0.00006220000000000,0.00073200000000000,0.38000000000000000,0.44900000000000000
151000.00000000000000000,-0.00008020000000000,-0.00007270000000000,-0.00006550000000000,-0.00000002640000000,0.00000003180000000,0.00006880000000000,0.00012000000000000,-0.00000359000000000,-0.00014200000000000,0.08140000000000000,0.00051200000000000,-0.08370000000000000,0.00006060000000000,0.00073100000000000,0.38000000000000000,0.44900000000000000
151000.00000000000000000,-0.00008020000000000,-0.00007270000000000,-0.00006550000000000,-0.00000002640000000,0.00000002770000000,0.00006890000000000,0.00012000000000000,-0.00000358000000000,-0.00014200000000000,0.08150000000000000,0.00051200000000000,-0.08380000000000000,0.00005880000000000,0.00072900000000000,0.38000000000000000,0.44900000000000000
151000.00000000000000000,-0.00008020000000000,-0.00007270000000000,-0.00006540000000000,-0.00000002630000000,0.00000001890000000,0.00006890000000000,0.00012000000000000,-0.00000355000000000,-0.00014200000000000,0.08170000000000000,0.00051200000000000,-0.08400000000000000,0.00005540000000000,0.00072300000000000,0.38100000000000000,0.45000000000000000
151000.00000000000000000,-0.00008020000000000,-0.00007270000000000,-0.00006540000000000,-0.00000002620000000,0.00000001110000000,0.00006890000000000,0.00012000000000000,-0.00000352000000000,-0.00014200000000000,0.08180000000000000,0.00051200000000000,-0.08410000000000000,0.00005230000000000,0.00071900000000000,0.38100000000000000,0.45000000000000000
151000.00000000000000000,-0.00008020000000000,-0.00007270000000000,-0.00006540000000000,-0.00000002610000000,0.00000000770000000,0.00006890000000000,0.00012000000000000,-0.00000354000000000,-0.00014200000000000,0.08200000000000000,0.00051200000000000,-0.08430000000000000,0.00005130000000000,0.00071800000000000,0.38100000000000000,0.45100000000000000
151000.00000000000000000,-0.00008030000000000,-0.00007280000000000,-0.00006550000000000,-0.00000002610000000,0.00000000961000000,0.00006890000000000,0.00012000000000000,-0.00000357000000000,-0.00014200000000000,0.08210000000000000,0.00051300000000000,-0.08440000000000000,0.00005270000000000,0.00072000000000000,0.38200000000000000,0.45100000000000000
151000.00000000000000000,-0.00008030000000000,-0.00007280000000000,-0.00006550000000000,-0.00000002610000000,0.00000001490000000,0.00006890000000000,0.00012000000000000,-0.00000362000000000,-0.00014200000000000,0.08230000000000000,0.00051300000000000,-0.08460000000000000,0.00005540000000000,0.00072400000000000,0.38200000000000000,0.45100000000000000
152000.00000000000000000,-0.00008040000000000,-0.00007290000000000,-0.00006560000000000,-0.00000002610000000,0.00000001790000000,0.00006890000000000,0.00012000000000000,-0.00000366000000000,-0.00014200000000000,0.08240000000000000,0.00051400000000000,-0.08470000000000000,0.00005670000000000,0.00072600000000000,0.38200000000000000,0.45200000000000000
152000.00000000000000000,-0.00008050000000000,-0.00007290000000000,-0.00006560000000000,-0.00000002630000000,0.00000002280000000,0.00006900000000000,0.00012000000000000,-0.00000368000000000,-0.00014200000000000,0.08260000000000000,0.00051400000000000,-0.08490000000000000,0.00005800000000000,0.00072700000000000,0.38200000000000000,0.45200000000000000
152000.00000000000000000,-0.00008050000000000,-0.00007300000000000,-0.00006560000000000,-0.00000002640000000,0.00000003130000000,0.00006900000000000,0.00012000000000000,-0.00000369000000000,-0.00014200000000000,0.08270000000000000,0.00051400000000000,-0.08500000000000000,0.00006070000000000,0.00073000000000000,0.38300000000000000,0.45200000000000000
152000.00000000000000000,-0.00008060000000000,-0.00007300000000000,-0.00006570000000000,-0.00000002670000000,0.00000004480000000,0.00006900000000000,0.00012000000000000,-0.00000374000000000,-0.00014300000000000,0.08280000000000000,0.00051500000000000,-0.08510000000000000,0.00006480000000000,0.00073500000000000,0.38300000000000000,0.45300000000000000
152000.00000000000000000,-0.00008060000000000,-0.00007310000000000,-0.00006570000000000,-0.00000002680000000,0.00000005510000000,0.00006900000000000,0.00012000000000000,-0.00000379000000000,-0.00014300000000000,0.08300000000000000,0.00051500000000000,-0.08530000000000000,0.00006860000000000,0.00074000000000000,0.38300000000000000,0.45300000000000000
152000.00000000000000000,-0.00008070000000000,-0.00007310000000000,-0.00006580000000000,-0.00000002680000000,0.00000005730000000,0.00006900000000000,0.00012000000000000,-0.00000383000000000,-0.00014300000000000,0.08310000000000000,0.00051600000000000,-0.08550000000000000,0.00007010000000000,0.00074200000000000,0.38400000000000000,0.45300000000000000
152000.00000000000000000,-0.00008080000000000,-0.00007320000000000,-0.00006580000000000,-0.00000002680000000,0.00000005760000000,0.00006900000000000,0.00012000000000000,-0.00000385000000000,-0.00014300000000000,0.08330000000000000,0.00051600000000000,-0.08560000000000000,0.00007080000000000,0.00074300000000000,0.38400000000000000,0.45400000000000000
152000.00000000000000000,-0.00008080000000000,-0.00007320000000000,-0.00006590000000000,-0.00000002670000000,0.00000005730000000,0.00006900000000000,0.00012000000000000,-0.00000389000000000,-0.00014300000000000,0.08340000000000000,0.00051600000000000,-0.08570000000000000,0.00007140000000000,0.00074400000000000,0.38400000000000000,0.45400000000000000
152000.00000000000000000,-0.00008090000000000,-0.00007330000000000,-0.00006590000000000,-0.00000002670000000,0.00000005810000000,0.00006910000000000,0.00012000000000000,-0.00000390000000000,-0.00014300000000000,0.08360000000000000,0.00051700000000000,-0.08590000000000000,0.00007170000000000,0.00074400000000000,0.38400000000000000,0.45500000000000000
152000.00000000000000000,-0.00008090000000000,-0.00007330000000000,-0.00006590000000000,-0.00000002680000000,0.00000005770000000,0.00006910000000000,0.00012000000000000,-0.00000389000000000,-0.00014300000000000,0.08370000000000000,0.00051700000000000,-0.08600000000000000,0.00007080000000000,0.00074300000000000,0.38500000000000000,0.45500000000000000
153000.00000000000000000,-0.00008090000000000,-0.00007320000000000,-0.00006580000000000,-0.00000002670000000,0.00000005090000000,0.00006910000000000,0.00012000000000000,-0.00000385000000000,-0.00014300000000000,0.08390000000000000,0.00051600000000000,-0.08620000000000000,0.00006760000000000,0.00073900000000000,0.38500000000000000,0.45500000000000000
153000.00000000000000000,-0.00008090000000000,-0.00007320000000000,-0.00006580000000000,-0.00000002660000000,0.00000003940000000,0.00006910000000000,0.00012000000000000,-0.00000384000000000,-0.00014300000000000,0.08400000000000000,0.00051600000000000,-0.08630000000000000,0.00006370000000000,0.00073400000000000,0.38500000000000000,0.45600000000000000
153000.00000000000000000,-0.00008090000000000,-0.00007330000000000,-0.00006580000000000,-0.00000002640000000,0.00000003220000000,0.00006910000000000,0.00012000000000000,-0.00000384000000000,-0.00014300000000000,0.08420000000000000,0.00051600000000000,-0.08650000000000000,0.00006180000000000,0.00073200000000000,0.38600000000000000,0.45600000000000000
153000.00000000000000000,-0.00008090000000000,-0.00007330000000000,-0.00006590000000000,-0.00000002630000000,0.00000002670000000,0.00006910000000000,0.00012000000000000,-0.00000385000000000,-0.00014300000000000,0.08430000000000000,0.00051700000000000,-0.08660000000000000,0.00006060000000000,0.00073100000000000,0.38600000000000000,0.45600000000000000
153000.00000000000000000,-0.00008100000000000,-0.00007330000000000,-0.00006590000000000,-0.00000002610000000,0.00000002000000000,0.00006910000000000,0.00012000000000000,-0.00000386000000000,-0.00014300000000000,0.08450000000000000,0.00051700000000000,-0.08680000000000000,0.00005890000000000,0.00072900000000000,0.38600000000000000,0.45700000000000000
153000.00000000000000000,-0.00008100000000000,-0.00007330000000000,-0.00006590000000000,-0.00000002600000000,0.00000001260000000,0.00006920000000000,0.00012100000000000,-0.00000384000000000,-0.00014300000000000,0.08460000000000000,0.00051700000000000,-0.08690000000000000,0.00005610000000000,0.00072500000000000,0.38700000000000000,0.45700000000000000
153000.00000000000000000,-0.00008100000000000,-0.00007330000000000,-0.00006580000000000,-0.00000002610000000,0.00000000903000000,0.00006920000000000,0.00012100000000000,-0.00000382000000000,-0.00014300000000000,0.08480000000000000,0.00051600000000000,-0.08710000000000000,0.00005400000000000,0.00072200000000000,0.38700000000000000,0.45800000000000000
153000.00000000000000000,-0.00008100000000000,-0.00007330000000000,-0.00006580000000000,-0.00000002610000000,0.00000000963000000,0.00006920000000000,0.00012100000000000,-0.00000383000000000,-0.00014300000000000,0.08490000000000000,0.00051700000000000,-0.08720000000000000,0.00005400000000000,0.00072200000000000,0.38700000000000000,0.45800000000000000
153000.00000000000000000,-0.00008110000000000,-0.00007340000000000,-0.00006590000000000,-0.00000002610000000,0.00000001550000000,0.00006920000000000,0.00012100000000000,-0.00000386000000000,-0.00014300000000000,0.08510000000000000,0.00051700000000000,-0.08740000000000000,0.00005610000000000,0.00072400000000000,0.38700000000000000,0.45800000000000000
153000.00000000000000000,-0.00008110000000000,-0.00007340000000000,-0.00006590000000000,-0.00000002630000000,0.00000002190000000,0.00006920000000000,0.00012100000000000,-0.00000391000000000,-0.00014300000000000,0.08520000000000000,0.00051800000000000,-0.08750000000000000,0.00005850000000000,0.00072800000000000,0.38800000000000000,0.45900000000000000
154000.00000000000000000,-0.00008120000000000,-0.00007350000000000,-0.00006600000000000,-0.00000002620000000,0.00000002350000000,0.00006920000000000,0.00012100000000000,-0.00000395000000000,-0.00014300000000000,0.08530000000000000,0.00051800000000000,-0.08770000000000000,0.00006020000000000,0.00072900000000000,0.38800000000000000,0.45900000000000000
154000.00000000000000000,-0.00008130000000000,-0.00007350000000000,-0.00006600000000000,-0.00000002630000000,0.00000002970000000,0.00006930000000000,0.00012100000000000,-0.00000399000000000,-0.00014300000000000,0.08550000000000000,0.00051800000000000,-0.08780000000000000,0.00006280000000000,0.00073300000000000,0.38800000000000000,0.45900000000000000
154000.00000000000000000,-0.00008140000000000,-0.00007360000000000,-0.00006610000000000,-0.00000002650000000,0.00000004060000000,0.00006930000000000,0.00012100000000000,-0.00000405000000000,-0.00014300000000000,0.08570000000000000,0.00051900000000000,-0.08800000000000000,0.00006670000000000,0.00073800000000000,0.38900000000000000,0.46000000000000000
154000.00000000000000000,-0.00008140000000000,-0.00007370000000000,-0.00006610000000000,-0.00000002660000000,0.00000005070000000,0.00006930000000000,0.00012100000000000,-0.00000408000000000,-0.00014300000000000,0.08580000000000000,0.00052000000000000,-0.08810000000000000,0.00007020000000000,0.00074200000000000,0.38900000000000000,0.46000000000000000
154000.00000000000000000,-0.00008150000000000,-0.00007370000000000,-0.00006620000000000,-0.00000002680000000,0.00000005730000000,0.00006930000000000,0.00012100000000000,-0.00000409000000000,-0.00014400000000000,0.08590000000000000,0.00052000000000000,-0.08830000000000000,0.00007200000000000,0.00074400000000000,0.38900000000000000,0.46000000000000000
154000.00000000000000000,-0.00008150000000000,-0.00007370000000000,-0.00006620000000000,-0.00000002680000000,0.00000005930000000,0.00006930000000000,0.00012100000000000,-0.00000410000000000,-0.00014400000000000,0.08610000000000000,0.00052000000000000,-0.08840000000000000,0.00007230000000000,0.00074400000000000,0.38900000000000000,0.46100000000000000
154000.00000000000000000,-0.00008150000000000,-0.00007380000000000,-0.00006620000000000,-0.00000002670000000,0.00000005740000000,0.00006930000000000,0.00012100000000000,-0.00000412000000000,-0.00014400000000000,0.08620000000000000,0.00052000000000000,-0.08860000000000000,0.00007190000000000,0.00074400000000000,0.39000000000000000,0.46100000000000000
154000.00000000000000000,-0.00008160000000000,-0.00007380000000000,-0.00006620000000000,-0.00000002670000000,0.00000005690000000,0.00006930000000000,0.00012100000000000,-0.00000415000000000,-0.00014400000000000,0.08640000000000000,0.00052000000000000,-0.08870000000000000,0.00007260000000000,0.00074500000000000,0.39000000000000000,0.46100000000000000
154000.00000000000000000,-0.00008160000000000,-0.00007380000000000,-0.00006630000000000,-0.00000002660000000,0.00000005500000000,0.00006940000000000,0.00012100000000000,-0.00000418000000000,-0.00014400000000000,0.08650000000000000,0.00052100000000000,-0.08890000000000000,0.00007270000000000,0.00074500000000000,0.39000000000000000,0.46200000000000000
154000.00000000000000000,-0.00008170000000000,-0.00007390000000000,-0.00006630000000000,-0.00000002650000000,0.00000004870000000,0.00006940000000000,0.00012100000000000,-0.00000418000000000,-0.00014400000000000,0.08670000000000000,0.00052100000000000,-0.08900000000000000,0.00007070000000000,0.00074300000000000,0.39100000000000000,0.46200000000000000
155000.00000000000000000,-0.00008170000000000,-0.00007380000000000,-0.00006630000000000,-0.00000002640000000,0.00000003880000000,0.00006940000000000,0.00012100000000000,-0.00000415000000000,-0.00014400000000000,0.08680000000000000,0.00052100000000000,-0.08920000000000000,0.00006690000000000,0.00073800000000000,0.39100000000000000,0.46300000000000000
155000.00000000000000000,-0.00008170000000000,-0.00007380000000000,-0.00006620000000000,-0.00000002630000000,0.00000003140000000,0.00006940000000000,0.00012100000000000,-0.00000411000000000,-0.00014400000000000,0.08700000000000000,0.00052000000000000,-0.08930000000000000,0.00006340000000000,0.00073400000000000,0.39100000000000000,0.46300000000000000
155000.00000000000000000,-0.00008170000000000,-0.00007380000000000,-0.00006620000000000,-0.00000002640000000,0.00000002710000000,0.00006940000000000,0.00012100000000000,-0.00000410000000000,-0.00014400000000000,0.08710000000000000,0.00052000000000000,-0.08950000000000000,0.00006130000000000,0.00073100000000000,0.39100000000000000,0.46300000000000000
155000.00000000000000000,-0.00008170000000000,-0.00007380000000000,-0.00006620000000000,-0.00000002630000000,0.00000002310000000,0.00006940000000000,0.00012100000000000,-0.00000410000000000,-0.00014400000000000,0.08730000000000000,0.00052000000000000,-0.08960000000000000,0.00006020000000000,0.00073000000000000,0.39200000000000000,0.46400000000000000
155000.00000000000000000,-0.00008170000000000,-0.00007390000000000,-0.00006620000000000,-0.00000002610000000,0.00000001510000000,0.00006940000000000,0.00012100000000000,-0.00000411000000000,-0.00014400000000000,0.08740000000000000,0.00052100000000000,-0.08980000000000000,0.00005830000000000,0.00072700000000000,0.39200000000000000,0.46400000000000000
155000.00000000000000000,-0.00008180000000000,-0.00007390000000000,-0.00006630000000000,-0.00000002590000000,0.00000000934000000,0.00006950000000000,0.00012100000000000,-0.00000413000000000,-0.00014400000000000,0.08760000000000000,0.00052100000000000,-0.08990000000000000,0.00005690000000000,0.00072600000000000,0.39200000000000000,0.46400000000000000
155000.00000000000000000,-0.00008180000000000,-0.00007390000000000,-0.00006630000000000,-0.00000002580000000,0.00000000634000000,0.00006950000000000,0.00012100000000000,-0.00000415000000000,-0.00014400000000000,0.08770000000000000,0.00052100000000000,-0.09010000000000000,0.00005640000000000,0.00072500000000000,0.39300000000000000,0.46500000000000000
155000.00000000000000000,-0.00008190000000000,-0.00007400000000000,-0.00006630000000000,-0.00000002590000000,0.00000001250000000,0.00006950000000000,0.00012100000000000,-0.00000417000000000,-0.00014400000000000,0.08790000000000000,0.00052100000000000,-0.09020000000000000,0.00005820000000000,0.00072800000000000,0.39300000000000000,0.46500000000000000
155000.00000000000000000,-0.00008190000000000,-0.00007400000000000,-0.00006630000000000,-0.00000002620000000,0.00000002200000000,0.00006950000000000,0.00012100000000000,-0.00000419000000000,-0.00014400000000000,0.08800000000000000,0.00052200000000000,-0.09040000000000000,0.00006080000000000,0.00073100000000000,0.39300000000000000,0.46500000000000000
155000.00000000000000000,-0.00008190000000000,-0.00007400000000000,-0.00006640000000000,-0.00000002630000000,0.00000002690000000,0.00006950000000000,0.00012100000000000,-0.00000420000000000,-0.00014400000000000,0.08820000000000000,0.00052200000000000,-0.09050000000000000,0.00006220000000000,0.00073200000000000,0.39300000000000000,0.46600000000000000
156000.00000000000000000,-0.00008200000000000,-0.00007410000000000,-0.00006640000000000,-0.00000002640000000,0.00000003230000000,0.00006950000000000,0.00012100000000000,-0.00000424000000000,-0.00014400000000000,0.08830000000000000,0.00052200000000000,-0.09070000000000000,0.00006420000000000,0.00073400000000000,0.39400000000000000,0.46600000000000000
156000.00000000000000000,-0.00008210000000000,-0.00007420000000000,-0.00006650000000000,-0.00000002640000000,0.00000003860000000,0.00006950000000000,0.00012100000000000,-0.00000430000000000,-0.00014400000000000,0.08850000000000000,0.00052300000000000,-0.09080000000000000,0.00006730000000000,0.00073800000000000,0.39400000000000000,0.46700000000000000
156000.00000000000000000,-0.00008220000000000,-0.00007420000000000,-0.00006650000000000,-0.00000002640000000,0.00000004640000000,0.00006960000000000,0.00012100000000000,-0.00000436000000000,-0.00014400000000000,0.08860000000000000,0.00052400000000000,-0.09100000000000000,0.00007120000000000,0.00074300000000000,0.39400000000000000,0.46700000000000000
156000.00000000000000000,-0.00008230000000000,-0.00007430000000000,-0.00006660000000000,-0.00000002660000000,0.00000005490000000,0.00006960000000000,0.00012100000000000,-0.00000441000000000,-0.00014400000000000,0.08880000000000000,0.00052400000000000,-0.09110000000000000,0.00007460000000000,0.00074800000000000,0.39500000000000000,0.46700000000000000
156000.00000000000000000,-0.00008230000000000,-0.00007430000000000,-0.00006660000000000,-0.00000002670000000,0.00000005760000000,0.00006960000000000,0.00012100000000000,-0.00000442000000000,-0.00014400000000000,0.08890000000000000,0.00052400000000000,-0.09130000000000000,0.00007500000000000,0.00074800000000000,0.39500000000000000,0.46800000000000000
156000.00000000000000000,-0.00008230000000000,-0.00007430000000000,-0.00006660000000000,-0.00000002670000000,0.00000005600000000,0.00006960000000000,0.00012100000000000,-0.00000440000000000,-0.00014400000000000,0.08910000000000000,0.00052400000000000,-0.09140000000000000,0.00007380000000000,0.00074600000000000,0.39500000000000000,0.46800000000000000
156000.00000000000000000,-0.00008230000000000,-0.00007430000000000,-0.00006660000000000,-0.00000002680000000,0.00000005540000000,0.00006960000000000,0.00012100000000000,-0.00000440000000000,-0.00014500000000000,0.08920000000000000,0.00052400000000000,-0.09160000000000000,0.00007310000000000,0.00074500000000000,0.39500000000000000,0.46800000000000000
156000.00000000000000000,-0.00008240000000000,-0.00007440000000000,-0.00006660000000000,-0.00000002670000000,0.00000005390000000,0.00006960000000000,0.00012100000000000,-0.00000442000000000,-0.00014500000000000,0.08940000000000000,0.00052500000000000,-0.09170000000000000,0.00007300000000000,0.00074400000000000,0.39600000000000000,0.46900000000000000
156000.00000000000000000,-0.00008240000000000,-0.00007440000000000,-0.00006670000000000,-0.00000002660000000,0.00000004950000000,0.00006970000000000,0.00012100000000000,-0.00000444000000000,-0.00014500000000000,0.08950000000000000,0.00052500000000000,-0.09190000000000000,0.00007230000000000,0.00074400000000000,0.39600000000000000,0.46900000000000000
156000.00000000000000000,-0.00008240000000000,-0.00007440000000000,-0.00006670000000000,-0.00000002640000000,0.00000004010000000,0.00006970000000000,0.00012100000000000,-0.00000444000000000,-0.00014500000000000,0.08970000000000000,0.00052500000000000,-0.09200000000000000,0.00006970000000000,0.00074100000000000,0.39600000000000000,0.46900000000000000
157000.00000000000000000,-0.00008250000000000,-0.00007440000000000,-0.00006670000000000,-0.00000002620000000,0.00000003050000000,0.00006970000000000,0.00012100000000000,-0.00000443000000000,-0.00014500000000000,0.08980000000000000,0.00052500000000000,-0.09220000000000000,0.00006620000000000,0.00073800000000000,0.39700000000000000,0.47000000000000000
157000.00000000000000000,-0.00008250000000000,-0.00007440000000000,-0.00006660000000000,-0.00000002610000000,0.00000002430000000,0.00006970000000000,0.00012100000000000,-0.00000441000000000,-0.00014500000000000,0.09000000000000000,0.00052500000000000,-0.09230000000000000,0.00006360000000000,0.00073400000000000,0.39700000000000000,0.47000000000000000
157000.00000000000000000,-0.00008250000000000,-0.00007440000000000,-0.00006660000000000,-0.00000002610000000,0.00000002110000000,0.00006970000000000,0.00012200000000000,-0.00000439000000000,-0.00014500000000000,0.09010000000000000,0.00052500000000000,-0.09250000000000000,0.00006190000000000,0.00073200000000000,0.39700000000000000,0.47100000000000000
157000.00000000000000000,-0.00008250000000000,-0.00007440000000000,-0.00006660000000000,-0.00000002610000000,0.00000001860000000,0.00006970000000000,0.00012200000000000,-0.00000439000000000,-0.00014500000000000,0.09030000000000000,0.00052500000000000,-0.09260000000000000,0.00006070000000000,0.00073000000000000,0.39700000000000000,0.47100000000000000
157000.00000000000000000,-0.00008250000000000,-0.00007450000000000,-0.00006660000000000,-0.00000002600000000,0.00000001340000000,0.00006970000000000,0.00012200000000000,-0.00000439000000000,-0.00014500000000000,0.09050000000000000,0.00052500000000000,-0.09280000000000000,0.00005910000000000,0.00072800000000000,0.39800000000000000,0.47100000000000000
157000.00000000000000000,-0.00008260000000000,-0.00007450000000000,-0.00006670000000000,-0.00000002590000000,0.00000000885000000,0.00006980000000000,0.00012200000000000,-0.00000441000000000,-0.00014500000000000,0.09060000000000000,0.00052500000000000,-0.09300000000000000,0.00005830000000000,0.00072800000000000,0.39800000000000000,0.47200000000000000
157000.00000000000000000,-0.00008260000000000,-0.00007450000000000,-0.00006670000000000,-0.00000002590000000,0.00000001170000000,0.00006980000000000,0.00012200000000000,-0.00000445000000000,-0.00014500000000000,0.09080000000000000,0.00052500000000000,-0.09310000000000000,0.00006000000000000,0.00073000000000000,0.39800000000000000,0.47200000000000000
157000.00000000000000000,-0.00008270000000000,-0.00007460000000000,-0.00006680000000000,-0.00000002600000000,0.00000001860000000,0.00006980000000000,0.00012200000000000,-0.00000449000000000,-0.00014500000000000,0.09090000000000000,0.00052600000000000,-0.09330000000000000,0.00006270000000000,0.00073300000000000,0.39900000000000000,0.47200000000000000
157000.00000000000000000,-0.00008280000000000,-0.00007470000000000,-0.00006680000000000,-0.00000002610000000,0.00000002590000000,0.00006980000000000,0.00012200000000000,-0.00000452000000000,-0.00014500000000000,0.09110000000000000,0.00052600000000000,-0.09340000000000000,0.00006510000000000,0.00073600000000000,0.39900000000000000,0.47300000000000000
157000.00000000000000000,-0.00008280000000000,-0.00007470000000000,-0.00006680000000000,-0.00000002630000000,0.00000003200000000,0.00006980000000000,0.00012200000000000,-0.00000453000000000,-0.00014500000000000,0.09120000000000000,0.00052700000000000,-0.09360000000000000,0.00006670000000000,0.00073700000000000,0.39900000000000000,0.47300000000000000
158000.00000000000000000,-0.00008280000000000,-0.00007470000000000,-0.00006680000000000,-0.00000002640000000,0.00000003720000000,0.00006980000000000,0.00012200000000000,-0.00000455000000000,-0.00014500000000000,0.09140000000000000,0.00052700000000000,-0.09370000000000000,0.00006820000000000,0.00073800000000000,0.39900000000000000,0.47300000000000000
158000.00000000000000000,-0.00008290000000000,-0.00007480000000000,-0.00006690000000000,-0.00000002660000000,0.00000004540000000,0.00006980000000000,0.00012200000000000,-0.00000460000000000,-0.00014500000000000,0.09150000000000000,0.00052700000000000,-0.09390000000000000,0.00007120000000000,0.00074200000000000,0.40000000000000000,0.47400000000000000
158000.00000000000000000,-0.00008300000000000,-0.00007480000000000,-0.00006700000000000,-0.00000002680000000,0.00000005380000000,0.00006990000000000,0.00012200000000000,-0.00000465000000000,-0.00014500000000000,0.09170000000000000,0.00052800000000000,-0.09400000000000000,0.00007490000000000,0.00074700000000000,0.40000000000000000,0.47400000000000000
158000.00000000000000000,-0.00008310000000000,-0.00007490000000000,-0.00006700000000000,-0.00000002670000000,0.00000005750000000,0.00006990000000000,0.00012200000000000,-0.00000470000000000,-0.00014500000000000,0.09180000000000000,0.00052800000000000,-0.09420000000000000,0.00007720000000000,0.00075100000000000,0.40000000000000000,0.47500000000000000
158000.00000000000000000,-0.00008310000000000,-0.00007490000000000,-0.00006700000000000,-0.00000002660000000,0.00000005470000000,0.00006990000000000,0.00012200000000000,-0.00000472000000000,-0.00014500000000000,0.09200000000000000,0.00052900000000000,-0.09430000000000000,0.00007690000000000,0.00075000000000000,0.40100000000000000,0.47500000000000000
158000.00000000000000000,-0.00008310000000000,-0.00007500000000000,-0.00006700000000000,-0.00000002650000000,0.00000005160000000,0.00006990000000000,0.00012200000000000,-0.00000473000000000,-0.00014500000000000,0.09210000000000000,0.00052900000000000,-0.09450000000000000,0.00007560000000000,0.00074800000000000,0.40100000000000000,0.47500000000000000
158000.00000000000000000,-0.00008310000000000,-0.00007500000000000,-0.00006700000000000,-0.00000002650000000,0.00000004950000000,0.00006990000000000,0.00012200000000000,-0.00000470000000000,-0.00014500000000000,0.09230000000000000,0.00052900000000000,-0.09460000000000000,0.00007430000000000,0.00074600000000000,0.40100000000000000,0.47600000000000000
158000.00000000000000000,-0.00008320000000000,-0.00007500000000000,-0.00006700000000000,-0.00000002660000000,0.00000004930000000,0.00006990000000000,0.00012200000000000,-0.00000469000000000,-0.00014500000000000,0.09240000000000000,0.00052900000000000,-0.09480000000000000,0.00007330000000000,0.00074500000000000,0.40100000000000000,0.47600000000000000
158000.00000000000000000,-0.00008320000000000,-0.00007500000000000,-0.00006700000000000,-0.00000002650000000,0.00000004300000000,0.00006990000000000,0.00012200000000000,-0.00000468000000000,-0.00014600000000000,0.09260000000000000,0.00052900000000000,-0.09490000000000000,0.00007100000000000,0.00074200000000000,0.40200000000000000,0.47600000000000000
158000.00000000000000000,-0.00008320000000000,-0.00007500000000000,-0.00006700000000000,-0.00000002630000000,0.00000003390000000,0.00007000000000000,0.00012200000000000,-0.00000469000000000,-0.00014600000000000,0.09270000000000000,0.00052900000000000,-0.09510000000000000,0.00006820000000000,0.00073900000000000,0.40200000000000000,0.47700000000000000
159000.00000000000000000,-0.00008320000000000,-0.00007500000000000,-0.00006700000000000,-0.00000002610000000,0.00000002400000000,0.00007000000000000,0.00012200000000000,-0.00000469000000000,-0.00014600000000000,0.09290000000000000,0.00052900000000000,-0.09530000000000000,0.00006560000000000,0.00073700000000000,0.40200000000000000,0.47700000000000000
159000.00000000000000000,-0.00008330000000000,-0.00007500000000000,-0.00006710000000000,-0.00000002590000000,0.00000001710000000,0.00007000000000000,0.00012200000000000,-0.00000471000000000,-0.00014600000000000,0.09300000000000000,0.00052900000000000,-0.09540000000000000,0.00006420000000000,0.00073500000000000,0.40300000000000000,0.47700000000000000
159000.00000000000000000,-0.00008330000000000,-0.00007510000000000,-0.00006710000000000,-0.00000002600000000,0.00000001780000000,0.00007000000000000,0.00012200000000000,-0.00000471000000000,-0.00014600000000000,0.09320000000000000,0.00052900000000000,-0.09560000000000000,0.00006400000000000,0.00073600000000000,0.40300000000000000,0.47800000000000000
159000.00000000000000000,-0.00008330000000000,-0.00007510000000000,-0.00006710000000000,-0.00000002590000000,0.00000001380000000,0.00007000000000000,0.00012200000000000,-0.00000470000000000,-0.00014600000000000,0.09330000000000000,0.00052900000000000,-0.09570000000000000,0.00006210000000000,0.00073200000000000,0.40300000000000000,0.47800000000000000
159000.00000000000000000,-0.00008330000000000,-0.00007510000000000,-0.00006700000000000,-0.00000002590000000,0.00000001160000000,0.00007000000000000,0.00012200000000000,-0.00000468000000000,-0.00014600000000000,0.09350000000000000,0.00052900000000000,-0.09590000000000000,0.00006040000000000,0.00072900000000000,0.40300000000000000,0.47900000000000000
159000.00000000000000000,-0.00008340000000000,-0.00007510000000000,-0.00006710000000000,-0.00000002610000000,0.00000001460000000,0.00007000000000000,0.00012200000000000,-0.00000469000000000,-0.00014600000000000,0.09370000000000000,0.00052900000000000,-0.09600000000000000,0.00006060000000000,0.00073000000000000,0.40400000000000000,0.47900000000000000
159000.00000000000000000,-0.00008340000000000,-0.00007510000000000,-0.00006710000000000,-0.00000002600000000,0.00000001800000000,0.00007010000000000,0.00012200000000000,-0.00000473000000000,-0.00014600000000000,0.09380000000000000,0.00053000000000000,-0.09620000000000000,0.00006300000000000,0.00073200000000000,0.40400000000000000,0.47900000000000000
159000.00000000000000000,-0.00008350000000000,-0.00007520000000000,-0.00006720000000000,-0.00000002620000000,0.00000002660000000,0.00007010000000000,0.00012200000000000,-0.00000480000000000,-0.00014600000000000,0.09400000000000000,0.00053000000000000,-0.09630000000000000,0.00006700000000000,0.00073800000000000,0.40400000000000000,0.48000000000000000
159000.00000000000000000,-0.00008360000000000,-0.00007530000000000,-0.00006720000000000,-0.00000002630000000,0.00000003290000000,0.00007010000000000,0.00012200000000000,-0.00000485000000000,-0.00014600000000000,0.09410000000000000,0.00053100000000000,-0.09650000000000000,0.00007010000000000,0.00074300000000000,0.40500000000000000,0.48000000000000000
159000.00000000000000000,-0.00008370000000000,-0.00007530000000000,-0.00006730000000000,-0.00000002630000000,0.00000003460000000,0.00007010000000000,0.00012200000000000,-0.00000489000000000,-0.00014600000000000,0.09430000000000000,0.00053100000000000,-0.09670000000000000,0.00007150000000000,0.00074300000000000,0.40500000000000000,0.48000000000000000
160000.00000000000000000,-0.00008370000000000,-0.00007540000000000,-0.00006730000000000,-0.00000002630000000,0.00000004210000000,0.00007010000000000,0.00012200000000000,-0.00000490000000000,-0.00014600000000000,0.09440000000000000,0.00053200000000000,-0.09680000000000000,0.00007350000000000,0.00074600000000000,0.40500000000000000,0.48100000000000000
160000.00000000000000000,-0.00008370000000000,-0.00007540000000000,-0.00006730000000000,-0.00000002670000000,0.00000005140000000,0.00007010000000000,0.00012200000000000,-0.00000492000000000,-0.00014600000000000,0.09460000000000000,0.00053200000000000,-0.09690000000000000,0.00007580000000000,0.00074800000000000,0.40500000000000000,0.48100000000000000
160000.00000000000000000,-0.00008380000000000,-0.00007550000000000,-0.00006740000000000,-0.00000002700000000,0.00000005180000000,0.00007020000000000,0.00012200000000000,-0.00000500000000000,-0.00014600000000000,0.09470000000000000,0.00053300000000000,-0.09710000000000000,0.00007700000000000,0.00074900000000000,0.40600000000000000,0.48100000000000000
160000.00000000000000000,-0.00008390000000000,-0.00007550000000000,-0.00006740000000000,-0.00000002630000000,0.00000004970000000,0.00007020000000000,0.00012200000000000,-0.00000500000000000,-0.00014600000000000,0.09490000000000000,0.00053300000000000,-0.09730000000000000,0.00007740000000000,0.00074900000000000,0.40600000000000000,0.48200000000000000
160000.00000000000000000,-0.00008390000000000,-0.00007560000000000,-0.00006750000000000,-0.00000002720000000,0.00000006220000000,0.00007020000000000,0.00012200000000000,-0.00000505000000000,-0.00014600000000000,0.09500000000000000,0.00053300000000000,-0.09740000000000000,0.00008040000000000,0.00075600000000000,0.40600000000000000,0.48200000000000000
160000.00000000000000000,-0.00008390000000000,-0.00007560000000000,-0.00006750000000000,-0.00000002680000000,0.00000005730000000,0.00007020000000000,0.00012200000000000,-0.00000503000000000,-0.00014600000000000,0.09520000000000000,0.00053300000000000,-0.09760000000000000,0.00008060000000000,0.00075400000000000,0.40700000000000000,0.48300000000000000
160000.00000000000000000,-0.00008400000000000,-0.00007560000000000,-0.00006750000000000,-0.00000002610000000,0.00000004290000000,0.00007020000000000,0.00012200000000000,-0.00000505000000000,-0.00014600000000000,0.09540000000000000,0.00053300000000000,-0.09770000000000000,0.00007700000000000,0.00074700000000000,0.40700000000000000,0.48300000000000000
160000.00000000000000000,-0.00008400000000000,-0.00007560000000000,-0.00006740000000000,-0.00000002620000000,0.00000003960000000,0.00007020000000000,0.00012200000000000,-0.00000499000000000,-0.00014600000000000,0.09550000000000000,0.00053300000000000,-0.09790000000000000,0.00007420000000000,0.00074600000000000,0.40700000000000000,0.48300000000000000
160000.00000000000000000,-0.00008400000000000,-0.00007560000000000,-0.00006740000000000,-0.00000002640000000,0.00000003730000000,0.00007020000000000,0.00012200000000000,-0.00000498000000000,-0.00014600000000000,0.09560000000000000,0.00053300000000000,-0.09800000000000000,0.00007180000000000,0.00074500000000000,0.40700000000000000,0.48400000000000000
160000.00000000000000000,-0.00008400000000000,-0.00007560000000000,-0.00006740000000000,-0.00000002690000000,0.00000003770000000,0.00007030000000000,0.00012300000000000,-0.00000499000000000,-0.00014600000000000,0.09580000000000000,0.00053300000000000,-0.09820000000000000,0.00007090000000000,0.00074500000000000,0.40800000000000000,0.48400000000000000
161000.00000000000000000,-0.00008410000000000,-0.00007560000000000,-0.00006750000000000,-0.00000002630000000,0.00000002840000000,0.00007030000000000,0.00012300000000000,-0.00000501000000000,-0.00014700000000000,0.09600000000000000,0.00053300000000000,-0.09840000000000000,0.00006920000000000,0.00074100000000000,0.40800000000000000,0.48400000000000000
161000.00000000000000000,-0.00008410000000000,-0.00007570000000000,-0.00006750000000000,-0.00000002590000000,0.00000001710000000,0.00007030000000000,0.00012300000000000,-0.00000501000000000,-0.00014700000000000,0.09610000000000000,0.00053300000000000,-0.09850000000000000,0.00006650000000000,0.00073700000000000,0.40800000000000000,0.48500000000000000
161000.00000000000000000,-0.00008410000000000,-0.00007570000000000,-0.00006750000000000,-0.00000002540000000,0.00000000499000000,0.00007030000000000,0.00012300000000000,-0.00000503000000000,-0.00014700000000000,0.09630000000000000,0.00053400000000000,-0.09870000000000000,0.00006350000000000,0.00073200000000000,0.40900000000000000,0.48500000000000000
161000.00000000000000000,-0.00008420000000000,-0.00007570000000000,-0.00006750000000000,-0.00000002560000000,0.00000000757000000,0.00007030000000000,0.00012300000000000,-0.00000504000000000,-0.00014700000000000,0.09640000000000000,0.00053400000000000,-0.09880000000000000,0.00006410000000000,0.00073300000000000,0.40900000000000000,0.48500000000000000
161000.00000000000000000,-0.00008420000000000,-0.00007570000000000,-0.00006750000000000,-0.00000002600000000,0.00000002130000000,0.00007030000000000,0.00012300000000000,-0.00000505000000000,-0.00014700000000000,0.09660000000000000,0.00053400000000000,-0.09900000000000000,0.00006750000000000,0.00073900000000000,0.40900000000000000,0.48600000000000000
161000.00000000000000000,-0.00008430000000000,-0.00007580000000000,-0.00006760000000000,-0.00000002670000000,0.00000003450000000,0.00007030000000000,0.00012300000000000,-0.00000508000000000,-0.00014700000000000,0.09670000000000000,0.00053400000000000,-0.09910000000000000,0.00007080000000000,0.00074500000000000,0.40900000000000000,0.48600000000000000
161000.00000000000000000,-0.00008430000000000,-0.00007580000000000,-0.00006760000000000,-0.00000002630000000,0.00000002880000000,0.00007040000000000,0.00012300000000000,-0.00000510000000000,-0.00014700000000000,0.09690000000000000,0.00053500000000000,-0.09930000000000000,0.00007030000000000,0.00074100000000000,0.41000000000000000,0.48600000000000000
161000.00000000000000000,-0.00008430000000000,-0.00007590000000000,-0.00006760000000000,-0.00000002620000000,0.00000003020000000,0.00007040000000000,0.00012300000000000,-0.00000512000000000,-0.00014700000000000,0.09710000000000000,0.00053500000000000,-0.09950000000000000,0.00007130000000000,0.00074200000000000,0.41000000000000000,0.48700000000000000
161000.00000000000000000,-0.00008440000000000,-0.00007590000000000,-0.00006770000000000,-0.00000002610000000,0.00000003550000000,0.00007040000000000,0.00012300000000000,-0.00000518000000000,-0.00014700000000000,0.09720000000000000,0.00053600000000000,-0.09960000000000000,0.00007430000000000,0.00074600000000000,0.41000000000000000,0.48700000000000000
161000.00000000000000000,-0.00008450000000000,-0.00007600000000000,-0.00006780000000000,-0.00000002600000000,0.00000003900000000,0.00007040000000000,0.00012300000000000,-0.00000524000000000,-0.00014700000000000,0.09740000000000000,0.00053600000000000,-0.09980000000000000,0.00007720000000000,0.00074800000000000,0.41100000000000000,0.48800000000000000
162000.00000000000000000,-0.00008460000000000,-0.00007610000000000,-0.00006780000000000,-0.00000002650000000,0.00000005310000000,0.00007040000000000,0.00012300000000000,-0.00000527000000000,-0.00014700000000000,0.09750000000000000,0.00053700000000000,-0.09990000000000000,0.00008110000000000,0.00075400000000000,0.41100000000000000,0.48800000000000000
162000.00000000000000000,-0.00008460000000000,-0.00007610000000000,-0.00006780000000000,-0.00000002690000000,0.00000005690000000,0.00007040000000000,0.00012300000000000,-0.00000526000000000,-0.00014700000000000,0.09770000000000000,0.00053700000000000,-0.10000000000000000,0.00008090000000000,0.00075500000000000,0.41100000000000000,0.48800000000000000
162000.00000000000000000,-0.00008460000000000,-0.00007610000000000,-0.00006780000000000,-0.00000002650000000,0.00000004640000000,0.00007040000000000,0.00012300000000000,-0.00000525000000000,-0.00014700000000000,0.09780000000000000,0.00053600000000000,-0.10000000000000000,0.00007790000000000,0.00074800000000000,0.41100000000000000,0.48900000000000000
162000.00000000000000000,-0.00008470000000000,-0.00007610000000000,-0.00006780000000000,-0.00000002660000000,0.00000004970000000,0.00007050000000000,0.00012300000000000,-0.00000527000000000,-0.00014700000000000,0.09800000000000000,0.00053700000000000,-0.10000000000000000,0.00007890000000000,0.00075000000000000,0.41200000000000000,0.48900000000000000
162000.00000000000000000,-0.00008470000000000,-0.00007620000000000,-0.00006790000000000,-0.00000002660000000,0.00000005340000000,0.00007050000000000,0.00012300000000000,-0.00000531000000000,-0.00014700000000000,0.09820000000000000,0.00053700000000000,-0.10100000000000000,0.00008080000000000,0.00075400000000000,0.41200000000000000,0.48900000000000000
162000.00000000000000000,-0.00008480000000000,-0.00007620000000000,-0.00006790000000000,-0.00000002630000000,0.00000004710000000,0.00007050000000000,0.00012300000000000,-0.00000534000000000,-0.00014700000000000,0.09830000000000000,0.00053800000000000,-0.10100000000000000,0.00008020000000000,0.00075200000000000,0.41200000000000000,0.49000000000000000
162000.00000000000000000,-0.00008480000000000,-0.00007620000000000,-0.00006790000000000,-0.00000002640000000,0.00000004370000000,0.00007050000000000,0.00012300000000000,-0.00000533000000000,-0.00014700000000000,0.09850000000000000,0.00053800000000000,-0.10100000000000000,0.00007840000000000,0.00075200000000000,0.41300000000000000,0.49000000000000000
162000.00000000000000000,-0.00008480000000000,-0.00007620000000000,-0.00006790000000000,-0.00000002630000000,0.00000003450000000,0.00007050000000000,0.00012300000000000,-0.00000530000000000,-0.00014700000000000,0.09860000000000000,0.00053700000000000,-0.10100000000000000,0.00007420000000000,0.00074700000000000,0.41300000000000000,0.49000000000000000
162000.00000000000000000,-0.00008480000000000,-0.00007620000000000,-0.00006790000000000,-0.00000002620000000,0.00000002590000000,0.00007050000000000,0.00012300000000000,-0.00000529000000000,-0.00014700000000000,0.09880000000000000,0.00053700000000000,-0.10100000000000000,0.00007120000000000,0.00074200000000000,0.41300000000000000,0.49100000000000000
162000.00000000000000000,-0.00008480000000000,-0.00007620000000000,-0.00006780000000000,-0.00000002600000000,0.00000002360000000,0.00007050000000000,0.00012300000000000,-0.00000528000000000,-0.00014700000000000,0.09890000000000000,0.00053700000000000,-0.10100000000000000,0.00007020000000000,0.00074100000000000,0.41300000000000000,0.49100000000000000
163000.00000000000000000,-0.00008490000000000,-0.00007620000000000,-0.00006790000000000,-0.00000002600000000,0.00000002240000000,0.00007060000000000,0.00012300000000000,-0.00000530000000000,-0.00014700000000000,0.09910000000000000,0.00053800000000000,-0.10100000000000000,0.00006970000000000,0.00074100000000000,0.41400000000000000,0.49100000000000000
163000.00000000000000000,-0.00008490000000000,-0.00007630000000000,-0.00006790000000000,-0.00000002580000000,0.00000001590000000,0.00007060000000000,0.00012300000000000,-0.00000532000000000,-0.00014700000000000,0.09930000000000000,0.00053800000000000,-0.10200000000000000,0.00006810000000000,0.00073900000000000,0.41400000000000000,0.49200000000000000
163000.00000000000000000,-0.00008490000000000,-0.00007630000000000,-0.00006790000000000,-0.00000002570000000,0.00000000960000000,0.00007060000000000,0.00012300000000000,-0.00000531000000000,-0.00014800000000000,0.09940000000000000,0.00053800000000000,-0.10200000000000000,0.00006630000000000,0.00073700000000000,0.41400000000000000,0.49200000000000000
163000.00000000000000000,-0.00008500000000000,-0.00007630000000000,-0.00006790000000000,-0.00000002590000000,0.00000001580000000,0.00007060000000000,0.00012300000000000,-0.00000534000000000,-0.00014800000000000,0.09960000000000000,0.00053800000000000,-0.10200000000000000,0.00006850000000000,0.00074000000000000,0.41400000000000000,0.49300000000000000
163000.00000000000000000,-0.00008510000000000,-0.00007640000000000,-0.00006800000000000,-0.00000002610000000,0.00000002450000000,0.00007060000000000,0.00012300000000000,-0.00000538000000000,-0.00014800000000000,0.09970000000000000,0.00053900000000000,-0.10200000000000000,0.00007140000000000,0.00074400000000000,0.41500000000000000,0.49300000000000000
163000.00000000000000000,-0.00008510000000000,-0.00007640000000000,-0.00006800000000000,-0.00000002610000000,0.00000002810000000,0.00007060000000000,0.00012300000000000,-0.00000540000000000,-0.00014800000000000,0.09990000000000000,0.00053900000000000,-0.10200000000000000,0.00007320000000000,0.00074400000000000,0.41500000000000000,0.49300000000000000
163000.00000000000000000,-0.00008510000000000,-0.00007640000000000,-0.00006800000000000,-0.00000002620000000,0.00000003470000000,0.00007060000000000,0.00012300000000000,-0.00000541000000000,-0.00014800000000000,0.10000000000000000,0.00053900000000000,-0.10200000000000000,0.00007490000000000,0.00074700000000000,0.41500000000000000,0.49400000000000000
163000.00000000000000000,-0.00008520000000000,-0.00007650000000000,-0.00006810000000000,-0.00000002640000000,0.00000003830000000,0.00007070000000000,0.00012300000000000,-0.00000544000000000,-0.00014800000000000,0.10000000000000000,0.00053900000000000,-0.10300000000000000,0.00007600000000000,0.00074900000000000,0.41600000000000000,0.49400000000000000
163000.00000000000000000,-0.00008530000000000,-0.00007650000000000,-0.00006810000000000,-0.00000002630000000,0.00000003990000000,0.00007070000000000,0.00012300000000000,-0.00000548000000000,-0.00014800000000000,0.10000000000000000,0.00054000000000000,-0.10300000000000000,0.00007800000000000,0.00074900000000000,0.41600000000000000,0.49400000000000000
163000.00000000000000000,-0.00008530000000000,-0.00007660000000000,-0.00006820000000000,-0.00000002650000000,0.00000004960000000,0.00007070000000000,0.00012300000000000,-0.00000554000000000,-0.00014800000000000,0.10100000000000000,0.00054000000000000,-0.10300000000000000,0.00008190000000000,0.00075500000000000,0.41600000000000000,0.49500000000000000
164000.00000000000000000,-0.00008540000000000,-0.00007670000000000,-0.00006820000000000,-0.00000002660000000,0.00000005210000000,0.00007070000000000,0.00012300000000000,-0.00000557000000000,-0.00014800000000000,0.10100000000000000,0.00054100000000000,-0.10300000000000000,0.00008320000000000,0.00075600000000000,0.41600000000000000,0.49500000000000000
164000.00000000000000000,-0.00008540000000000,-0.00007670000000000,-0.00006820000000000,-0.00000002630000000,0.00000004580000000,0.00007070000000000,0.00012300000000000,-0.00000558000000000,-0.00014800000000000,0.10100000000000000,0.00054100000000000,-0.10300000000000000,0.00008190000000000,0.00075300000000000,0.41700000000000000,0.49500000000000000
164000.00000000000000000,-0.00008540000000000,-0.00007670000000000,-0.00006820000000000,-0.00000002640000000,0.00000004770000000,0.00007070000000000,0.00012300000000000,-0.00000557000000000,-0.00014800000000000,0.10100000000000000,0.00054100000000000,-0.10300000000000000,0.00008110000000000,0.00075300000000000,0.41700000000000000,0.49600000000000000
164000.00000000000000000,-0.00008550000000000,-0.00007670000000000,-0.00006820000000000,-0.00000002680000000,0.00000005160000000,0.00007080000000000,0.00012300000000000,-0.00000556000000000,-0.00014800000000000,0.10100000000000000,0.00054100000000000,-0.10400000000000000,0.00008130000000000,0.00075400000000000,0.41700000000000000,0.49600000000000000
164000.00000000000000000,-0.00008550000000000,-0.00007680000000000,-0.00006820000000000,-0.00000002650000000,0.00000004780000000,0.00007080000000000,0.00012300000000000,-0.00000560000000000,-0.00014800000000000,0.10100000000000000,0.00054100000000000,-0.10400000000000000,0.00008100000000000,0.00075200000000000,0.41800000000000000,0.49600000000000000
164000.00000000000000000,-0.00008550000000000,-0.00007680000000000,-0.00006830000000000,-0.00000002660000000,0.00000004420000000,0.00007080000000000,0.00012400000000000,-0.00000559000000000,-0.00014800000000000,0.10100000000000000,0.00054100000000000,-0.10400000000000000,0.00007980000000000,0.00075200000000000,0.41800000000000000,0.49700000000000000
164000.00000000000000000,-0.00008560000000000,-0.00007680000000000,-0.00006830000000000,-0.00000002610000000,0.00000003490000000,0.00007080000000000,0.00012400000000000,-0.00000560000000000,-0.00014800000000000,0.10200000000000000,0.00054200000000000,-0.10400000000000000,0.00007750000000000,0.00075000000000000,0.41800000000000000,0.49700000000000000
164000.00000000000000000,-0.00008560000000000,-0.00007680000000000,-0.00006830000000000,-0.00000002580000000,0.00000002240000000,0.00007080000000000,0.00012400000000000,-0.00000560000000000,-0.00014800000000000,0.10200000000000000,0.00054200000000000,-0.10400000000000000,0.00007390000000000,0.00074500000000000,0.41800000000000000,0.49800000000000000
164000.00000000000000000,-0.00008560000000000,-0.00007680000000000,-0.00006830000000000,-0.00000002580000000,0.00000002340000000,0.00007080000000000,0.00012400000000000,-0.00000560000000000,-0.00014800000000000,0.10200000000000000,0.00054200000000000,-0.10400000000000000,0.00007350000000000,0.00074600000000000,0.41900000000000000,0.49800000000000000
164000.00000000000000000,-0.00008570000000000,-0.00007680000000000,-0.00006830000000000,-0.00000002600000000,0.00000002340000000,0.00007080000000000,0.00012400000000000,-0.00000560000000000,-0.00014800000000000,0.10200000000000000,0.00054200000000000,-0.10500000000000000,0.00007280000000000,0.00074500000000000,0.41900000000000000,0.49800000000000000
165000.00000000000000000,-0.00008570000000000,-0.00007680000000000,-0.00006830000000000,-0.00000002590000000,0.00000001900000000,0.00007090000000000,0.00012400000000000,-0.00000559000000000,-0.00014800000000000,0.10200000000000000,0.00054200000000000,-0.10500000000000000,0.00007060000000000,0.00074100000000000,0.41900000000000000,0.49900000000000000
165000.00000000000000000,-0.00008570000000000,-0.00007680000000000,-0.00006830000000000,-0.00000002600000000,0.00000001460000000,0.00007090000000000,0.00012400000000000,-0.00000557000000000,-0.00014800000000000,0.10200000000000000,0.00054200000000000,-0.10500000000000000,0.00006870000000000,0.00073900000000000,0.42000000000000000,0.49900000000000000
165000.00000000000000000,-0.00008570000000000,-0.00007690000000000,-0.00006830000000000,-0.00000002590000000,0.00000001380000000,0.00007090000000000,0.00012400000000000,-0.00000560000000000,-0.00014800000000000,0.10300000000000000,0.00054200000000000,-0.10500000000000000,0.00006910000000000,0.00074000000000000,0.42000000000000000,0.49900000000000000
165000.00000000000000000,-0.00008580000000000,-0.00007700000000000,-0.00006840000000000,-0.00000002600000000,0.00000001980000000,0.00007090000000000,0.00012400000000000,-0.00000567000000000,-0.00014900000000000,0.10300000000000000,0.00054300000000000,-0.10500000000000000,0.00007230000000000,0.00074400000000000,0.42000000000000000,0.50000000000000000
165000.00000000000000000,-0.00008590000000000,-0.00007700000000000,-0.00006840000000000,-0.00000002600000000,0.00000002760000000,0.00007090000000000,0.00012400000000000,-0.00000573000000000,-0.00014900000000000,0.10300000000000000,0.00054300000000000,-0.10500000000000000,0.00007640000000000,0.00074900000000000,0.42000000000000000,0.50000000000000000
165000.00000000000000000,-0.00008600000000000,-0.00007710000000000,-0.00006850000000000,-0.00000002630000000,0.00000003520000000,0.00007090000000000,0.00012400000000000,-0.00000574000000000,-0.00014900000000000,0.10300000000000000,0.00054300000000000,-0.10500000000000000,0.00007870000000000,0.00075200000000000,0.42100000000000000,0.50000000000000000
165000.00000000000000000,-0.00008600000000000,-0.00007710000000000,-0.00006850000000000,-0.00000002660000000,0.00000003830000000,0.00007090000000000,0.00012400000000000,-0.00000575000000000,-0.00014900000000000,0.10300000000000000,0.00054400000000000,-0.10600000000000000,0.00007890000000000,0.00075200000000000,0.42100000000000000,0.50100000000000000
165000.00000000000000000,-0.00008600000000000,-0.00007710000000000,-0.00006850000000000,-0.00000002620000000,0.00000003670000000,0.00007100000000000,0.00012400000000000,-0.00000577000000000,-0.00014900000000000,0.10300000000000000,0.00054400000000000,-0.10600000000000000,0.00007860000000000,0.00074900000000000,0.42100000000000000,0.50100000000000000
165000.00000000000000000,-0.00008610000000000,-0.00007710000000000,-0.00006850000000000,-0.00000002660000000,0.00000004540000000,0.00007100000000000,0.00012400000000000,-0.00000577000000000,-0.00014900000000000,0.10400000000000000,0.00054400000000000,-0.10600000000000000,0.00008140000000000,0.00075300000000000,0.42100000000000000,0.50100000000000000
165000.00000000000000000,-0.00008620000000000,-0.00007720000000000,-0.00006860000000000,-0.00000002660000000,0.00000005180000000,0.00007100000000000,0.00012400000000000,-0.00000584000000000,-0.00014900000000000,0.10400000000000000,0.00054500000000000,-0.10600000000000000,0.00008470000000000,0.00075600000000000,0.42200000000000000,0.50200000000000000
166000.00000000000000000,-0.00008620000000000,-0.00007730000000000,-0.00006860000000000,-0.00000002650000000,0.00000004980000000,0.00007100000000000,0.00012400000000000,-0.00000588000000000,-0.00014900000000000,0.10400000000000000,0.00054500000000000,-0.10600000000000000,0.00008510000000000,0.00075700000000000,0.42200000000000000,0.50200000000000000
166000.00000000000000000,-0.00008630000000000,-0.00007730000000000,-0.00006870000000000,-0.00000002640000000,0.00000004740000000,0.00007100000000000,0.00012400000000000,-0.00000590000000000,-0.00014900000000000,0.10400000000000000,0.00054600000000000,-0.10600000000000000,0.00008440000000000,0.00075700000000000,0.42200000000000000,0.50300000000000000
166000.00000000000000000,-0.00008630000000000,-0.00007730000000000,-0.00006860000000000,-0.00000002650000000,0.00000004440000000,0.00007100000000000,0.00012400000000000,-0.00000589000000000,-0.00014900000000000,0.10400000000000000,0.00054500000000000,-0.10700000000000000,0.00008300000000000,0.00075600000000000,0.42300000000000000,0.50300000000000000
166000.00000000000000000,-0.00008630000000000,-0.00007730000000000,-0.00006860000000000,-0.00000002630000000,0.00000004100000000,0.00007100000000000,0.00012400000000000,-0.00000588000000000,-0.00014900000000000,0.10400000000000000,0.00054600000000000,-0.10700000000000000,0.00008190000000000,0.00075300000000000,0.42300000000000000,0.50300000000000000
166000.00000000000000000,-0.00008630000000000,-0.00007740000000000,-0.00006860000000000,-0.00000002660000000,0.00000004470000000,0.00007110000000000,0.00012400000000000,-0.00000588000000000,-0.00014900000000000,0.10400000000000000,0.00054500000000000,-0.10700000000000000,0.00008210000000000,0.00075400000000000,0.42300000000000000,0.50400000000000000
166000.00000000000000000,-0.00008630000000000,-0.00007730000000000,-0.00006860000000000,-0.00000002660000000,0.00000004130000000,0.00007110000000000,0.00012400000000000,-0.00000586000000000,-0.00014900000000000,0.10500000000000000,0.00054600000000000,-0.10700000000000000,0.00008030000000000,0.00075300000000000,0.42300000000000000,0.50400000000000000
166000.00000000000000000,-0.00008640000000000,-0.00007740000000000,-0.00006870000000000,-0.00000002600000000,0.00000002760000000,0.00007110000000000,0.00012400000000000,-0.00000588000000000,-0.00014900000000000,0.10500000000000000,0.00054500000000000,-0.10700000000000000,0.00007640000000000,0.00074700000000000,0.42400000000000000,0.50400000000000000
166000.00000000000000000,-0.00008640000000000,-0.00007740000000000,-0.00006860000000000,-0.00000002610000000,0.00000002370000000,0.00007110000000000,0.00012400000000000,-0.00000587000000000,-0.00014900000000000,0.10500000000000000,0.00054600000000000,-0.10700000000000000,0.00007520000000000,0.00074700000000000,0.42400000000000000,0.50500000000000000
166000.00000000000000000,-0.00008650000000000,-0.00007750000000000,-0.00006870000000000,-0.00000002560000000,0.00000001980000000,0.00007110000000000,0.00012400000000000,-0.00000592000000000,-0.00014900000000000,0.10500000000000000,0.00054600000000000,-0.10800000000000000,0.00007460000000000,0.00074700000000000,0.42400000000000000,0.50500000000000000
166000.00000000000000000,-0.00008650000000000,-0.00007740000000000,-0.00006870000000000,-0.00000002600000000,0.00000001920000000,0.00007110000000000,0.00012400000000000,-0.00000590000000000,-0.00014900000000000,0.10500000000000000,0.00054600000000000,-0.10800000000000000,0.00007460000000000,0.00074700000000000,0.42500000000000000,0.50500000000000000
167000.00000000000000000,-0.00008650000000000,-0.00007750000000000,-0.00006870000000000,-0.00000002570000000,0.00000001870000000,0.00007110000000000,0.00012400000000000,-0.00000594000000000,-0.00014900000000000,0.10500000000000000,0.00054600000000000,-0.10800000000000000,0.00007390000000000,0.00074600000000000,0.42500000000000000,0.50600000000000000
167000.00000000000000000,-0.00008650000000000,-0.00007750000000000,-0.00006870000000000,-0.00000002600000000,0.00000001850000000,0.00007120000000000,0.00012400000000000,-0.00000589000000000,-0.00014900000000000,0.10600000000000000,0.00054600000000000,-0.10800000000000000,0.00007280000000000,0.00074400000000000,0.42500000000000000,0.50600000000000000
167000.00000000000000000,-0.00008660000000000,-0.00007750000000000,-0.00006870000000000,-0.00000002560000000,0.00000001650000000,0.00007120000000000,0.00012400000000000,-0.00000595000000000,-0.00014900000000000,0.10600000000000000,0.00054700000000000,-0.10800000000000000,0.00007260000000000,0.00074300000000000,0.42500000000000000,0.50600000000000000
167000.00000000000000000,-0.00008660000000000,-0.00007750000000000,-0.00006870000000000,-0.00000002650000000,0.00000002650000000,0.00007120000000000,0.00012400000000000,-0.00000594000000000,-0.00014900000000000,0.10600000000000000,0.00054700000000000,-0.10800000000000000,0.00007590000000000,0.00074800000000000,0.42600000000000000,0.50700000000000000
167000.00000000000000000,-0.00008680000000000,-0.00007770000000000,-0.00006890000000000,-0.00000002590000000,0.00000003130000000,0.00007120000000000,0.00012400000000000,-0.00000605000000000,-0.00015000000000000,0.10600000000000000,0.00054800000000000,-0.10900000000000000,0.00007950000000000,0.00075100000000000,0.42600000000000000,0.50700000000000000
167000.00000000000000000,-0.00008680000000000,-0.00007770000000000,-0.00006890000000000,-0.00000002650000000,0.00000003590000000,0.00007120000000000,0.00012400000000000,-0.00000605000000000,-0.00015000000000000,0.10600000000000000,0.00054800000000000,-0.10900000000000000,0.00008170000000000,0.00075500000000000,0.42600000000000000,0.50800000000000000
167000.00000000000000000,-0.00008690000000000,-0.00007780000000000,-0.00006890000000000,-0.00000002600000000,0.00000003580000000,0.00007120000000000,0.00012400000000000,-0.00000610000000000,-0.00015000000000000,0.10600000000000000,0.00054800000000000,-0.10900000000000000,0.00008240000000000,0.00075500000000000,0.42600000000000000,0.50800000000000000
167000.00000000000000000,-0.00008690000000000,-0.00007780000000000,-0.00006890000000000,-0.00000002660000000,0.00000004180000000,0.00007120000000000,0.00012400000000000,-0.00000609000000000,-0.00015000000000000,0.10700000000000000,0.00054800000000000,-0.10900000000000000,0.00008370000000000,0.00075700000000000,0.42700000000000000,0.50800000000000000
167000.00000000000000000,-0.00008690000000000,-0.00007780000000000,-0.00006900000000000,-0.00000002620000000,0.00000004490000000,0.00007130000000000,0.00012400000000000,-0.00000612000000000,-0.00015000000000000,0.10700000000000000,0.00054900000000000,-0.10900000000000000,0.00008480000000000,0.00075700000000000,0.42700000000000000,0.50900000000000000
167000.00000000000000000,-0.00008690000000000,-0.00007780000000000,-0.00006890000000000,-0.00000002710000000,0.00000004980000000,0.00007130000000000,0.00012400000000000,-0.00000610000000000,-0.00015000000000000,0.10700000000000000,0.00054900000000000,-0.10900000000000000,0.00008540000000000,0.00075800000000000,0.42700000000000000,0.50900000000000000
168000.00000000000000000,-0.00008740000000000,-0.00007820000000000,-0.00006940000000000,-0.00000002400000000,0.00000006540000000,0.00007130000000000,0.00012400000000000,-0.00000651000000000,-0.00015000000000000,0.10700000000000000,0.00055400000000000,-0.11000000000000000,0.00009130000000000,0.00076700000000000,0.42800000000000000,0.51000000000000000
168000.00000000000000000,-0.00008680000000000,-0.00007770000000000,-0.00006880000000000,-0.00000002470000000,0.00000002690000000,0.00007100000000000,0.00012400000000000,-0.00000620000000000,-0.00014900000000000,0.10700000000000000,0.00054700000000000,-0.11000000000000000,0.00007700000000000,0.00075400000000000,0.42800000000000000,0.51000000000000000
168000.00000000000000000,-0.00008680000000000,-0.00007770000000000,-0.00006880000000000,-0.00000002420000000,-0.00000003730000000,0.00007130000000000,0.00012500000000000,-0.00000590000000000,-0.00015000000000000,0.10800000000000000,0.00054700000000000,-0.11000000000000000,0.00006280000000000,0.00071800000000000,0.42800000000000000,0.51000000000000000
168000.00000000000000000,-0.00008680000000000,-0.00007760000000000,-0.00006870000000000,-0.00000002390000000,-0.00000001190000000,0.00007120000000000,0.00012400000000000,-0.00000596000000000,-0.00014900000000000,0.10800000000000000,0.00054700000000000,-0.11000000000000000,0.00006800000000000,0.00071900000000000,0.42800000000000000,0.51000000000000000
168000.00000000000000000,-0.00008710000000000,-0.00007790000000000,-0.00006900000000000,-0.00000003140000000,0.00000011700000000,0.00007140000000000,0.00012500000000000,-0.00000609000000000,-0.00015000000000000,0.10800000000000000,0.00054900000000000,-0.11000000000000000,0.00009040000000000,0.00077800000000000,0.42900000000000000,0.51100000000000000
168000.00000000000000000,-0.00008690000000000,-0.00007770000000000,-0.00006870000000000,-0.00000003010000000,0.00000005350000000,0.00007130000000000,0.00012500000000000,-0.00000588000000000,-0.00015000000000000,0.10800000000000000,0.00054700000000000,-0.11000000000000000,0.00006880000000000,0.00074700000000000,0.42900000000000000,0.51100000000000000
168000.00000000000000000,-0.00008690000000000,-0.00007770000000000,-0.00006880000000000,-0.00000002810000000,0.00000001200000000,0.00007140000000000,0.00012500000000000,-0.00000592000000000,-0.00015000000000000,0.10800000000000000,0.00054800000000000,-0.11000000000000000,0.00005580000000000,0.00073700000000000,0.42900000000000000,0.51100000000000000
168000.00000000000000000,-0.00008710000000000,-0.00007790000000000,-0.00006890000000000,-0.00000002750000000,0.00000001210000000,0.00007140000000000,0.00012500000000000,-0.00000605000000000,-0.00015000000000000,0.10800000000000000,0.00054800000000000,-0.11100000000000000,0.00006270000000000,0.00074400000000000,0.42900000000000000,0.51200000000000000
168000.00000000000000000,-0.00008720000000000,-0.00007800000000000,-0.00006910000000000,-0.00000002300000000,-0.00000003460000000,0.00007140000000000,0.00012500000000000,-0.00000618000000000,-0.00015000000000000,0.10800000000000000,0.00055000000000000,-0.11100000000000000,0.00006710000000000,0.00071800000000000,0.43000000000000000,0.51200000000000000
168000.00000000000000000,-0.00008730000000000,-0.00007810000000000,-0.00006910000000000,-0.00000002570000000,0.00000002670000000,0.00007140000000000,0.00012500000000000,-0.00000625000000000,-0.00015000000000000,0.10800000000000000,0.00055100000000000,-0.11100000000000000,0.00008110000000000,0.00074600000000000,0.43000000000000000,0.51200000000000000
169000.00000000000000000,-0.00008710000000000,-0.00007790000000000,-0.00006890000000000,-0.00000002890000000,0.00000006370000000,0.00007140000000000,0.00012500000000000,-0.00000602000000000,-0.00015000000000000,0.10900000000000000,0.00054900000000000,-0.11100000000000000,0.00007750000000000,0.00076200000000000,0.43000000000000000,0.51300000000000000
169000.00000000000000000,-0.00008700000000000,-0.00007770000000000,-0.00006870000000000,-0.00000002690000000,-0.00000000264000000,0.00007140000000000,0.00012500000000000,-0.00000582000000000,-0.00015000000000000,0.10900000000000000,0.00054700000000000,-0.11100000000000000,0.00005330000000000,0.00072500000000000,0.43100000000000000,0.51300000000000000
169000.00000000000000000,-0.00008710000000000,-0.00007780000000000,-0.00006880000000000,-0.00000002800000000,0.00000002160000000,0.00007150000000000,0.00012500000000000,-0.00000589000000000,-0.00015000000000000,0.10900000000000000,0.00054800000000000,-0.11100000000000000,0.00006100000000000,0.00073900000000000,0.43100000000000000,0.51300000000000000
169000.00000000000000000,-0.00008740000000000,-0.00007810000000000,-0.00006910000000000,-0.00000002640000000,0.00000003790000000,0.00007150000000000,0.00012500000000000,-0.00000618000000000,-0.00015000000000000,0.10900000000000000,0.00055100000000000,-0.11200000000000000,0.00007820000000000,0.00075200000000000,0.43100000000000000,0.51400000000000000
169000.00000000000000000,-0.00008760000000000,-0.00007830000000000,-0.00006930000000000,-0.00000002340000000,0.00000000070400000,0.00007150000000000,0.00012500000000000,-0.00000636000000000,-0.00015100000000000,0.10900000000000000,0.00055200000000000,-0.11200000000000000,0.00007790000000000,0.00073600000000000,0.43100000000000000,0.51400000000000000
169000.00000000000000000,-0.00008750000000000,-0.00007820000000000,-0.00006920000000000,-0.00000002520000000,0.00000000327000000,0.00007150000000000,0.00012500000000000,-0.00000624000000000,-0.00015000000000000,0.10900000000000000,0.00055100000000000,-0.11200000000000000,0.00007150000000000,0.00073800000000000,0.43200000000000000,0.51500000000000000
169000.00000000000000000,-0.00008730000000000,-0.00007800000000000,-0.00006900000000000,-0.00000002650000000,-0.00000000422000000,0.00007150000000000,0.00012500000000000,-0.00000603000000000,-0.00015000000000000,0.11000000000000000,0.00054900000000000,-0.11200000000000000,0.00005900000000000,0.00073100000000000,0.43200000000000000,0.51500000000000000
169000.00000000000000000,-0.00008740000000000,-0.00007810000000000,-0.00006900000000000,-0.00000002710000000,0.00000002680000000,0.00007150000000000,0.00012500000000000,-0.00000606000000000,-0.00015000000000000,0.11000000000000000,0.00055000000000000,-0.11200000000000000,0.00006700000000000,0.00074000000000000,0.43200000000000000,0.51500000000000000
169000.00000000000000000,-0.00008750000000000,-0.00007820000000000,-0.00006910000000000,-0.00000002890000000,0.00000008200000000,0.00007150000000000,0.00012500000000000,-0.00000621000000000,-0.00015000000000000,0.11000000000000000,0.00055100000000000,-0.11200000000000000,0.00008730000000000,0.00076400000000000,0.43200000000000000,0.51600000000000000
169000.00000000000000000,-0.00008770000000000,-0.00007840000000000,-0.00006930000000000,-0.00000002730000000,0.00000006640000000,0.00007160000000000,0.00012500000000000,-0.00000637000000000,-0.00015100000000000,0.11000000000000000,0.00055300000000000,-0.11300000000000000,0.00009020000000000,0.00075800000000000,0.43300000000000000,0.51600000000000000
170000.00000000000000000,-0.00008770000000000,-0.00007840000000000,-0.00006930000000000,-0.00000002620000000,0.00000002610000000,0.00007160000000000,0.00012500000000000,-0.00000633000000000,-0.00015100000000000,0.11000000000000000,0.00055200000000000,-0.11300000000000000,0.00007830000000000,0.00074700000000000,0.43300000000000000,0.51600000000000000
170000.00000000000000000,-0.00008770000000000,-0.00007830000000000,-0.00006920000000000,-0.00000002480000000,-0.00000001810000000,0.00007160000000000,0.00012500000000000,-0.00000627000000000,-0.00015100000000000,0.11000000000000000,0.00055200000000000,-0.11300000000000000,0.00006290000000000,0.00073100000000000,0.43300000000000000,0.51700000000000000
170000.00000000000000000,-0.00008770000000000,-0.00007830000000000,-0.00006920000000000,-0.00000002570000000,-0.00000000064800000,0.00007160000000000,0.00012500000000000,-0.00000626000000000,-0.00015100000000000,0.11100000000000000,0.00055200000000000,-0.11300000000000000,0.00006630000000000,0.00073600000000000,0.43400000000000000,0.51700000000000000
170000.00000000000000000,-0.00008780000000000,-0.00007840000000000,-0.00006930000000000,-0.00000002870000000,0.00000006710000000,0.00007160000000000,0.00012500000000000,-0.00000634000000000,-0.00015100000000000,0.11100000000000000,0.00055300000000000,-0.11300000000000000,0.00008400000000000,0.00076200000000000,0.43400000000000000,0.51700000000000000
170000.00000000000000000,-0.00008780000000000,-0.00007840000000000,-0.00006930000000000,-0.00000002770000000,0.00000005010000000,0.00007160000000000,0.00012500000000000,-0.00000630000000000,-0.00015100000000000,0.11100000000000000,0.00055200000000000,-0.11300000000000000,0.00007940000000000,0.00074700000000000,0.43400000000000000,0.51800000000000000
170000.00000000000000000,-0.00008770000000000,-0.00007830000000000,-0.00006920000000000,-0.00000002550000000,-0.00000000169000000,0.00007160000000000,0.00012500000000000,-0.00000620000000000,-0.00015100000000000,0.11100000000000000,0.00055200000000000,-0.11400000000000000,0.00006240000000000,0.00072500000000000,0.43400000000000000,0.51800000000000000
170000.00000000000000000,-0.00008770000000000,-0.00007830000000000,-0.00006910000000000,-0.00000002580000000,-0.00000001940000000,0.00007170000000000,0.00012500000000000,-0.00000614000000000,-0.00015100000000000,0.11100000000000000,0.00055100000000000,-0.11400000000000000,0.00005390000000000,0.00072500000000000,0.43500000000000000,0.51800000000000000
170000.00000000000000000,-0.00008790000000000,-0.00007840000000000,-0.00006930000000000,-0.00000002480000000,-0.00000002950000000,0.00007170000000000,0.00012500000000000,-0.00000628000000000,-0.00015100000000000,0.11100000000000000,0.00055200000000000,-0.11400000000000000,0.00005860000000000,0.00072500000000000,0.43500000000000000,0.51900000000000000
170000.00000000000000000,-0.00008810000000000,-0.00007860000000000,-0.00006950000000000,-0.00000002640000000,0.00000003490000000,0.00007170000000000,0.00012500000000000,-0.00000649000000000,-0.00015100000000000,0.11200000000000000,0.00055400000000000,-0.11400000000000000,0.00008250000000000,0.00075800000000000,0.43500000000000000,0.51900000000000000
170000.00000000000000000,-0.00008810000000000,-0.00007860000000000,-0.00006950000000000,-0.00000002790000000,0.00000007180000000,0.00007170000000000,0.00012500000000000,-0.00000647000000000,-0.00015100000000000,0.11200000000000000,0.00055400000000000,-0.11400000000000000,0.00008990000000000,0.00077200000000000,0.43500000000000000,0.51900000000000000
171000.00000000000000000,-0.00008790000000000,-0.00007850000000000,-0.00006930000000000,-0.00000002630000000,0.00000001660000000,0.00007170000000000,0.00012500000000000,-0.00000629000000000,-0.00015100000000000,0.11200000000000000,0.00055300000000000,-0.11400000000000000,0.00006900000000000,0.00073800000000000,0.43600000000000000,0.52000000000000000
171000.00000000000000000,-0.00008780000000000,-0.00007840000000000,-0.00006910000000000,-0.00000002600000000,-0.00000001600000000,0.00007170000000000,0.00012500000000000,-0.00000615000000000,-0.00015100000000000,0.11200000000000000,0.00055100000000000,-0.11500000000000000,0.00005390000000000,0.00071900000000000,0.43600000000000000,0.52000000000000000
171000.00000000000000000,-0.00008820000000000,-0.00007870000000000,-0.00006950000000000,-0.00000002700000000,0.00000001790000000,0.00007160000000000,0.00012500000000000,-0.00000663000000000,-0.00015100000000000,0.11200000000000000,0.00055500000000000,-0.11500000000000000,0.00006880000000000,0.00073800000000000,0.43600000000000000,0.52100000000000000
171000.00000000000000000,-0.00008840000000000,-0.00007890000000000,-0.00006970000000000,-0.00000002600000000,0.00000002770000000,0.00007180000000000,0.00012500000000000,-0.00000671000000000,-0.00015100000000000,0.11200000000000000,0.00055700000000000,-0.11500000000000000,0.00008170000000000,0.00074600000000000,0.43700000000000000,0.52100000000000000
171000.00000000000000000,-0.00008830000000000,-0.00007880000000000,-0.00006960000000000,-0.00000002660000000,0.00000004140000000,0.00007170000000000,0.00012500000000000,-0.00000659000000000,-0.00015100000000000,0.11300000000000000,0.00055600000000000,-0.11500000000000000,0.00008660000000000,0.00075600000000000,0.43700000000000000,0.52100000000000000
171000.00000000000000000,-0.00008830000000000,-0.00007880000000000,-0.00006950000000000,-0.00000002660000000,0.00000002960000000,0.00007180000000000,0.00012500000000000,-0.00000652000000000,-0.00015100000000000,0.11300000000000000,0.00055500000000000,-0.11500000000000000,0.00007730000000000,0.00075100000000000,0.43700000000000000,0.52200000000000000
171000.00000000000000000,-0.00008820000000000,-0.00007870000000000,-0.00006940000000000,-0.00000002600000000,0.00000000270000000,0.00007180000000000,0.00012500000000000,-0.00000640000000000,-0.00015100000000000,0.11300000000000000,0.00055400000000000,-0.11500000000000000,0.00006510000000000,0.00073200000000000,0.43700000000000000,0.52200000000000000
171000.00000000000000000,-0.00008820000000000,-0.00007870000000000,-0.00006940000000000,-0.00000002740000000,0.00000002730000000,0.00007180000000000,0.00012500000000000,-0.00000641000000000,-0.00015100000000000,0.11300000000000000,0.00055400000000000,-0.11500000000000000,0.00007030000000000,0.00073800000000000,0.43800000000000000,0.52200000000000000
171000.00000000000000000,-0.00008830000000000,-0.00007880000000000,-0.00006950000000000,-0.00000002770000000,0.00000005650000000,0.00007180000000000,0.00012500000000000,-0.00000648000000000,-0.00015100000000000,0.11300000000000000,0.00055500000000000,-0.11600000000000000,0.00008380000000000,0.00075100000000000,0.43800000000000000,0.52300000000000000
171000.00000000000000000,-0.00008850000000000,-0.00007900000000000,-0.00006970000000000,-0.00000002720000000,0.00000005190000000,0.00007180000000000,0.00012600000000000,-0.00000664000000000,-0.00015200000000000,0.11300000000000000,0.00055700000000000,-0.11600000000000000,0.00008600000000000,0.00075500000000000,0.43800000000000000,0.52300000000000000
172000.00000000000000000,-0.00008850000000000,-0.00007890000000000,-0.00006970000000000,-0.00000002610000000,0.00000002080000000,0.00007190000000000,0.00012600000000000,-0.00000660000000000,-0.00015200000000000,0.11400000000000000,0.00055600000000000,-0.11600000000000000,0.00007650000000000,0.00074800000000000,0.43800000000000000,0.52300000000000000
172000.00000000000000000,-0.00008840000000000,-0.00007890000000000,-0.00006960000000000,-0.00000002560000000,0.00000000145000000,0.00007190000000000,0.00012600000000000,-0.00000651000000000,-0.00015100000000000,0.11400000000000000,0.00055500000000000,-0.11600000000000000,0.00006910000000000,0.00074300000000000,0.43900000000000000,0.52400000000000000
172000.00000000000000000,-0.00008850000000000,-0.00007890000000000,-0.00006960000000000,-0.00000002640000000,0.00000002050000000,0.00007190000000000,0.00012600000000000,-0.00000657000000000,-0.00015200000000000,0.11400000000000000,0.00055600000000000,-0.11600000000000000,0.00007370000000000,0.00074700000000000,0.43900000000000000,0.52400000000000000
172000.00000000000000000,-0.00008860000000000,-0.00007900000000000,-0.00006960000000000,-0.00000002740000000,0.00000004320000000,0.00007190000000000,0.00012600000000000,-0.00000658000000000,-0.00015200000000000,0.11400000000000000,0.00055600000000000,-0.11600000000000000,0.00008030000000000,0.00074900000000000,0.43900000000000000,0.52400000000000000
172000.00000000000000000,-0.00008860000000000,-0.00007900000000000,-0.00006960000000000,-0.00000002660000000,0.00000003180000000,0.00007190000000000,0.00012600000000000,-0.00000656000000000,-0.00015200000000000,0.11400000000000000,0.00055600000000000,-0.11700000000000000,0.00007620000000000,0.00074000000000000,0.43900000000000000,0.52500000000000000
172000.00000000000000000,-0.00008850000000000,-0.00007890000000000,-0.00006960000000000,-0.00000002680000000,0.00000001000000000,0.00007190000000000,0.00012600000000000,-0.00000648000000000,-0.00015200000000000,0.11400000000000000,0.00055600000000000,-0.11700000000000000,0.00006510000000000,0.00073400000000000,0.44000000000000000,0.52500000000000000
172000.00000000000000000,-0.00008860000000000,-0.00007900000000000,-0.00006960000000000,-0.00000002550000000,-0.00000001710000000,0.00007190000000000,0.00012600000000000,-0.00000654000000000,-0.00015200000000000,0.11500000000000000,0.00055600000000000,-0.11700000000000000,0.00005990000000000,0.00072800000000000,0.44000000000000000,0.52500000000000000
172000.00000000000000000,-0.00008880000000000,-0.00007910000000000,-0.00006980000000000,-0.00000002580000000,-0.00000000144000000,0.00007200000000000,0.00012600000000000,-0.00000667000000000,-0.00015200000000000,0.11500000000000000,0.00055700000000000,-0.11700000000000000,0.00006960000000000,0.00074000000000000,0.44000000000000000,0.52600000000000000
172000.00000000000000000,-0.00008890000000000,-0.00007920000000000,-0.00006990000000000,-0.00000002720000000,0.00000004560000000,0.00007200000000000,0.00012600000000000,-0.00000679000000000,-0.00015200000000000,0.11500000000000000,0.00055900000000000,-0.11700000000000000,0.00008570000000000,0.00076100000000000,0.44100000000000000,0.52600000000000000
172000.00000000000000000,-0.00008890000000000,-0.00007920000000000,-0.00006980000000000,-0.00000002690000000,0.00000004090000000,0.00007200000000000,0.00012600000000000,-0.00000675000000000,-0.00015200000000000,0.11500000000000000,0.00055800000000000,-0.11700000000000000,0.00008300000000000,0.00075100000000000,0.44100000000000000,0.52600000000000000
173000.00000000000000000,-0.00008880000000000,-0.00007910000000000,-0.00006970000000000,-0.00000002650000000,0.00000001190000000,0.00007200000000000,0.00012600000000000,-0.00000658000000000,-0.00015200000000000,0.11500000000000000,0.00055700000000000,-0.11800000000000000,0.00006830000000000,0.00073200000000000,0.44100000000000000,0.52700000000000000
173000.00000000000000000,-0.00008870000000000,-0.00007910000000000,-0.00006960000000000,-0.00000002710000000,0.00000001510000000,0.00007200000000000,0.00012600000000000,-0.00000655000000000,-0.00015200000000000,0.11500000000000000,0.00055700000000000,-0.11800000000000000,0.00006580000000000,0.00073500000000000,0.44100000000000000,0.52700000000000000
173000.00000000000000000,-0.00008890000000000,-0.00007920000000000,-0.00006980000000000,-0.00000002650000000,0.00000002430000000,0.00007200000000000,0.00012600000000000,-0.00000670000000000,-0.00015200000000000,0.11500000000000000,0.00055800000000000,-0.11800000000000000,0.00007540000000000,0.00074400000000000,0.44200000000000000,0.52700000000000000
173000.00000000000000000,-0.00008910000000000,-0.00007940000000000,-0.00007000000000000,-0.00000002710000000,0.00000005040000000,0.00007200000000000,0.00012600000000000,-0.00000690000000000,-0.00015200000000000,0.11600000000000000,0.00056000000000000,-0.11800000000000000,0.00009010000000000,0.00076100000000000,0.44200000000000000,0.52800000000000000
173000.00000000000000000,-0.00008920000000000,-0.00007950000000000,-0.00007010000000000,-0.00000002740000000,0.00000005650000000,0.00007210000000000,0.00012600000000000,-0.00000694000000000,-0.00015200000000000,0.11600000000000000,0.00056000000000000,-0.11800000000000000,0.00009240000000000,0.00076600000000000,0.44200000000000000,0.52800000000000000
173000.00000000000000000,-0.00008910000000000,-0.00007940000000000,-0.00006990000000000,-0.00000002630000000,0.00000001880000000,0.00007210000000000,0.00012600000000000,-0.00000679000000000,-0.00015200000000000,0.11600000000000000,0.00055900000000000,-0.11900000000000000,0.00007580000000000,0.00074500000000000,0.44200000000000000,0.52900000000000000
173000.00000000000000000,-0.00008900000000000,-0.00007930000000000,-0.00006980000000000,-0.00000002620000000,0.00000000079000000,0.00007210000000000,0.00012600000000000,-0.00000667000000000,-0.00015200000000000,0.11600000000000000,0.00055800000000000,-0.11900000000000000,0.00006480000000000,0.00073000000000000,0.44300000000000000,0.52900000000000000
173000.00000000000000000,-0.00008910000000000,-0.00007930000000000,-0.00006980000000000,-0.00000002700000000,0.00000002580000000,0.00007210000000000,0.00012600000000000,-0.00000671000000000,-0.00015200000000000,0.11600000000000000,0.00055900000000000,-0.11900000000000000,0.00007230000000000,0.00073900000000000,0.44300000000000000,0.52900000000000000
173000.00000000000000000,-0.00008920000000000,-0.00007950000000000,-0.00007000000000000,-0.00000002760000000,0.00000005250000000,0.00007210000000000,0.00012600000000000,-0.00000686000000000,-0.00015200000000000,0.11600000000000000,0.00056000000000000,-0.11900000000000000,0.00008510000000000,0.00075300000000000,0.44300000000000000,0.53000000000000000
173000.00000000000000000,-0.00008940000000000,-0.00007960000000000,-0.00007010000000000,-0.00000002730000000,0.00000004840000000,0.00007210000000000,0.00012600000000000,-0.00000695000000000,-0.00015200000000000,0.11700000000000000,0.00056100000000000,-0.11900000000000000,0.00008770000000000,0.00075800000000000,0.44400000000000000,0.53000000000000000
174000.00000000000000000,-0.00008930000000000,-0.00007950000000000,-0.00007000000000000,-0.00000002610000000,0.00000001390000000,0.00007210000000000,0.00012600000000000,-0.00000689000000000,-0.00015200000000000,0.11700000000000000,0.00056000000000000,-0.11900000000000000,0.00007640000000000,0.00074700000000000,0.44400000000000000,0.53000000000000000
174000.00000000000000000,-0.00008930000000000,-0.00007950000000000,-0.00007000000000000,-0.00000002600000000,0.00000000014400000,0.00007220000000000,0.00012600000000000,-0.00000682000000000,-0.00015200000000000,0.11700000000000000,0.00056000000000000,-0.12000000000000000,0.00006900000000000,0.00074100000000000,0.44400000000000000,0.53100000000000000
174000.00000000000000000,-0.00008930000000000,-0.00007950000000000,-0.00007000000000000,-0.00000002660000000,0.00000001470000000,0.00007220000000000,0.00012600000000000,-0.00000683000000000,-0.00015200000000000,0.11700000000000000,0.00056000000000000,-0.12000000000000000,0.00007260000000000,0.00074100000000000,0.44400000000000000,0.53100000000000000
174000.00000000000000000,-0.00008940000000000,-0.00007960000000000,-0.00007000000000000,-0.00000002700000000,0.00000003950000000,0.00007220000000000,0.00012600000000000,-0.00000687000000000,-0.00015300000000000,0.11700000000000000,0.00056100000000000,-0.12000000000000000,0.00008070000000000,0.00074700000000000,0.44500000000000000,0.53100000000000000
174000.00000000000000000,-0.00008940000000000,-0.00007960000000000,-0.00007000000000000,-0.00000002770000000,0.00000004750000000,0.00007220000000000,0.00012600000000000,-0.00000687000000000,-0.00015300000000000,0.11700000000000000,0.00056100000000000,-0.12000000000000000,0.00008170000000000,0.00075100000000000,0.44500000000000000,0.53200000000000000
174000.00000000000000000,-0.00008940000000000,-0.00007960000000000,-0.00007000000000000,-0.00000002650000000,0.00000001000000000,0.00007220000000000,0.00012600000000000,-0.00000685000000000,-0.00015300000000000,0.11800000000000000,0.00056000000000000,-0.12000000000000000,0.00006990000000000,0.00073900000000000,0.44500000000000000,0.53200000000000000
174000.00000000000000000,-0.00008950000000000,-0.00007960000000000,-0.00007000000000000,-0.00000002540000000,-0.00000001860000000,0.00007220000000000,0.00012600000000000,-0.00000687000000000,-0.00015300000000000,0.11800000000000000,0.00056100000000000,-0.12000000000000000,0.00006310000000000,0.00073100000000000,0.44500000000000000,0.53200000000000000
174000.00000000000000000,-0.00008960000000000,-0.00007970000000000,-0.00007020000000000,-0.00000002620000000,0.00000000823000000,0.00007230000000000,0.00012600000000000,-0.00000697000000000,-0.00015300000000000,0.11800000000000000,0.00056200000000000,-0.12100000000000000,0.00007380000000000,0.00074600000000000,0.44600000000000000,0.53300000000000000
174000.00000000000000000,-0.00008970000000000,-0.00007980000000000,-0.00007020000000000,-0.00000002680000000,0.00000003390000000,0.00007230000000000,0.00012600000000000,-0.00000706000000000,-0.00015300000000000,0.11800000000000000,0.00056200000000000,-0.12100000000000000,0.00008340000000000,0.00075300000000000,0.44600000000000000,0.53300000000000000
174000.00000000000000000,-0.00008970000000000,-0.00007980000000000,-0.00007020000000000,-0.00000002700000000,0.00000003830000000,0.00007230000000000,0.00012600000000000,-0.00000702000000000,-0.00015300000000000,0.11800000000000000,0.00056200000000000,-0.12100000000000000,0.00008250000000000,0.00074900000000000,0.44600000000000000,0.53300000000000000
175000.00000000000000000,-0.00008960000000000,-0.00007970000000000,-0.00007010000000000,-0.00000002740000000,0.00000002730000000,0.00007230000000000,0.00012600000000000,-0.00000689000000000,-0.00015300000000000,0.11800000000000000,0.00056100000000000,-0.12100000000000000,0.00007320000000000,0.00074100000000000,0.44600000000000000,0.53400000000000000
175000.00000000000000000,-0.00008960000000000,-0.00007970000000000,-0.00007010000000000,-0.00000002660000000,0.00000001060000000,0.00007230000000000,0.00012600000000000,-0.00000689000000000,-0.00015300000000000,0.11900000000000000,0.00056100000000000,-0.12100000000000000,0.00006850000000000,0.00073700000000000,0.44700000000000000,0.53400000000000000
175000.00000000000000000,-0.00008980000000000,-0.00007990000000000,-0.00007030000000000,-0.00000002660000000,0.00000002220000000,0.00007230000000000,0.00012600000000000,-0.00000705000000000,-0.00015300000000000,0.11900000000000000,0.00056300000000000,-0.12100000000000000,0.00007870000000000,0.00074700000000000,0.44700000000000000,0.53400000000000000
175000.00000000000000000,-0.00009000000000000,-0.00008010000000000,-0.00007040000000000,-0.00000002730000000,0.00000005160000000,0.00007230000000000,0.00012600000000000,-0.00000722000000000,-0.00015300000000000,0.11900000000000000,0.00056400000000000,-0.12200000000000000,0.00009280000000000,0.00076500000000000,0.44700000000000000,0.53500000000000000
175000.00000000000000000,-0.00009000000000000,-0.00008010000000000,-0.00007040000000000,-0.00000002730000000,0.00000005270000000,0.00007240000000000,0.00012600000000000,-0.00000723000000000,-0.00015300000000000,0.11900000000000000,0.00056400000000000,-0.12200000000000000,0.00009280000000000,0.00076400000000000,0.44800000000000000,0.53500000000000000
175000.00000000000000000,-0.00008990000000000,-0.00008000000000000,-0.00007030000000000,-0.00000002670000000,0.00000002440000000,0.00007240000000000,0.00012600000000000,-0.00000707000000000,-0.00015300000000000,0.11900000000000000,0.00056300000000000,-0.12200000000000000,0.00007800000000000,0.00074600000000000,0.44800000000000000,0.53600000000000000
175000.00000000000000000,-0.00008980000000000,-0.00007990000000000,-0.00007020000000000,-0.00000002670000000,0.00000001060000000,0.00007240000000000,0.00012700000000000,-0.00000695000000000,-0.00015300000000000,0.11900000000000000,0.00056200000000000,-0.12200000000000000,0.00006810000000000,0.00073400000000000,0.44800000000000000,0.53600000000000000
175000.00000000000000000,-0.00008990000000000,-0.00007990000000000,-0.00007030000000000,-0.00000002720000000,0.00000002700000000,0.00007240000000000,0.00012700000000000,-0.00000702000000000,-0.00015300000000000,0.12000000000000000,0.00056300000000000,-0.12200000000000000,0.00007470000000000,0.00074200000000000,0.44800000000000000,0.53600000000000000
175000.00000000000000000,-0.00009010000000000,-0.00008010000000000,-0.00007040000000000,-0.00000002740000000,0.00000004220000000,0.00007240000000000,0.00012700000000000,-0.00000718000000000,-0.00015300000000000,0.12000000000000000,0.00056400000000000,-0.12200000000000000,0.00008530000000000,0.00075300000000000,0.44900000000000000,0.53700000000000000
175000.00000000000000000,-0.00009020000000000,-0.00008020000000000,-0.00007050000000000,-0.00000002680000000,0.00000003580000000,0.00007240000000000,0.00012700000000000,-0.00000726000000000,-0.00015300000000000,0.12000000000000000,0.00056500000000000,-0.12300000000000000,0.00008710000000000,0.00075600000000000,0.44900000000000000,0.53700000000000000
176000.00000000000000000,-0.00009020000000000,-0.00008020000000000,-0.00007050000000000,-0.00000002630000000,0.00000001510000000,0.00007240000000000,0.00012700000000000,-0.00000721000000000,-0.00015300000000000,0.12000000000000000,0.00056500000000000,-0.12300000000000000,0.00007830000000000,0.00075000000000000,0.44900000000000000,0.53700000000000000
176000.00000000000000000,-0.00009010000000000,-0.00008010000000000,-0.00007030000000000,-0.00000002610000000,-0.00000000203000000,0.00007250000000000,0.00012700000000000,-0.00000710000000000,-0.00015300000000000,0.12000000000000000,0.00056400000000000,-0.12300000000000000,0.00006860000000000,0.00073800000000000,0.44900000000000000,0.53800000000000000
176000.00000000000000000,-0.00009010000000000,-0.00008010000000000,-0.00007030000000000,-0.00000002660000000,0.00000001480000000,0.00007250000000000,0.00012700000000000,-0.00000710000000000,-0.00015300000000000,0.12000000000000000,0.00056400000000000,-0.12300000000000000,0.00007290000000000,0.00074000000000000,0.45000000000000000,0.53800000000000000
176000.00000000000000000,-0.00009020000000000,-0.00008020000000000,-0.00007040000000000,-0.00000002770000000,0.00000004550000000,0.00007250000000000,0.00012700000000000,-0.00000716000000000,-0.00015300000000000,0.12100000000000000,0.00056500000000000,-0.12300000000000000,0.00008280000000000,0.00075100000000000,0.45000000000000000,0.53800000000000000
176000.00000000000000000,-0.00009030000000000,-0.00008020000000000,-0.00007050000000000,-0.00000002740000000,0.00000004090000000,0.00007250000000000,0.00012700000000000,-0.00000722000000000,-0.00015400000000000,0.12100000000000000,0.00056500000000000,-0.12300000000000000,0.00008340000000000,0.00075200000000000,0.45000000000000000,0.53900000000000000
176000.00000000000000000,-0.00009030000000000,-0.00008030000000000,-0.00007050000000000,-0.00000002610000000,0.00000000682000000,0.00007250000000000,0.00012700000000000,-0.00000722000000000,-0.00015400000000000,0.12100000000000000,0.00056500000000000,-0.12400000000000000,0.00007430000000000,0.00074300000000000,0.45000000000000000,0.53900000000000000
176000.00000000000000000,-0.00009030000000000,-0.00008030000000000,-0.00007050000000000,-0.00000002590000000,-0.00000000494000000,0.00007250000000000,0.00012700000000000,-0.00000722000000000,-0.00015400000000000,0.12100000000000000,0.00056500000000000,-0.12400000000000000,0.00007020000000000,0.00074200000000000,0.45100000000000000,0.53900000000000000
176000.00000000000000000,-0.00009040000000000,-0.00008040000000000,-0.00007060000000000,-0.00000002640000000,0.00000001170000000,0.00007250000000000,0.00012700000000000,-0.00000728000000000,-0.00015400000000000,0.12100000000000000,0.00056600000000000,-0.12400000000000000,0.00007650000000000,0.00074700000000000,0.45100000000000000,0.54000000000000000
176000.00000000000000000,-0.00009050000000000,-0.00008040000000000,-0.00007060000000000,-0.00000002700000000,0.00000003450000000,0.00007260000000000,0.00012700000000000,-0.00000732000000000,-0.00015400000000000,0.12200000000000000,0.00056600000000000,-0.12400000000000000,0.00008390000000000,0.00075100000000000,0.45100000000000000,0.54000000000000000
176000.00000000000000000,-0.00009050000000000,-0.00008040000000000,-0.00007060000000000,-0.00000002770000000,0.00000004280000000,0.00007260000000000,0.00012700000000000,-0.00000728000000000,-0.00015400000000000,0.12200000000000000,0.00056600000000000,-0.12400000000000000,0.00008310000000000,0.00074900000000000,0.45200000000000000,0.54000000000000000
177000.00000000000000000,-0.00009050000000000,-0.00008030000000000,-0.00007050000000000,-0.00000002710000000,0.00000002320000000,0.00007260000000000,0.00012700000000000,-0.00000722000000000,-0.00015400000000000,0.12200000000000000,0.00056600000000000,-0.12400000000000000,0.00007490000000000,0.00074100000000000,0.45200000000000000,0.54100000000000000
177000.00000000000000000,-0.00009050000000000,-0.00008040000000000,-0.00007050000000000,-0.00000002620000000,0.00000000300000000,0.00007260000000000,0.00012700000000000,-0.00000725000000000,-0.00015400000000000,0.12200000000000000,0.00056600000000000,-0.12500000000000000,0.00007080000000000,0.00073800000000000,0.45200000000000000,0.54100000000000000
177000.00000000000000000,-0.00009070000000000,-0.00008060000000000,-0.00007070000000000,-0.00000002670000000,0.00000002370000000,0.00007260000000000,0.00012700000000000,-0.00000741000000000,-0.00015400000000000,0.12200000000000000,0.00056700000000000,-0.12500000000000000,0.00008240000000000,0.00075300000000000,0.45200000000000000,0.54100000000000000
177000.00000000000000000,-0.00009080000000000,-0.00008070000000000,-0.00007080000000000,-0.00000002750000000,0.00000005220000000,0.00007260000000000,0.00012700000000000,-0.00000753000000000,-0.00015400000000000,0.12200000000000000,0.00056900000000000,-0.12500000000000000,0.00009480000000000,0.00076600000000000,0.45300000000000000,0.54200000000000000
177000.00000000000000000,-0.00009080000000000,-0.00008070000000000,-0.00007080000000000,-0.00000002750000000,0.00000005070000000,0.00007260000000000,0.00012700000000000,-0.00000748000000000,-0.00015400000000000,0.12300000000000000,0.00056800000000000,-0.12500000000000000,0.00009240000000000,0.00076100000000000,0.45300000000000000,0.54200000000000000
177000.00000000000000000,-0.00009070000000000,-0.00008050000000000,-0.00007070000000000,-0.00000002720000000,0.00000002950000000,0.00007260000000000,0.00012700000000000,-0.00000735000000000,-0.00015400000000000,0.12300000000000000,0.00056700000000000,-0.12500000000000000,0.00007960000000000,0.00074600000000000,0.45300000000000000,0.54200000000000000
177000.00000000000000000,-0.00009070000000000,-0.00008050000000000,-0.00007060000000000,-0.00000002690000000,0.00000001560000000,0.00007270000000000,0.00012700000000000,-0.00000727000000000,-0.00015400000000000,0.12300000000000000,0.00056600000000000,-0.12500000000000000,0.00007150000000000,0.00073800000000000,0.45300000000000000,0.54300000000000000
177000.00000000000000000,-0.00009080000000000,-0.00008060000000000,-0.00007070000000000,-0.00000002690000000,0.00000002310000000,0.00007270000000000,0.00012700000000000,-0.00000737000000000,-0.00015400000000000,0.12300000000000000,0.00056700000000000,-0.12600000000000000,0.00007760000000000,0.00074500000000000,0.45400000000000000,0.54300000000000000
177000.00000000000000000,-0.00009100000000000,-0.00008080000000000,-0.00007090000000000,-0.00000002710000000,0.00000003870000000,0.00007270000000000,0.00012700000000000,-0.00000753000000000,-0.00015400000000000,0.12300000000000000,0.00056900000000000,-0.12600000000000000,0.00008870000000000,0.00075700000000000,0.45400000000000000,0.54400000000000000
177000.00000000000000000,-0.00009100000000000,-0.00008080000000000,-0.00007090000000000,-0.00000002700000000,0.00000003720000000,0.00007270000000000,0.00012700000000000,-0.00000758000000000,-0.00015400000000000,0.12300000000000000,0.00057000000000000,-0.12600000000000000,0.00008960000000000,0.00076100000000000,0.45400000000000000,0.54400000000000000
178000.00000000000000000,-0.00009100000000000,-0.00008080000000000,-0.00007080000000000,-0.00000002650000000,0.00000001210000000,0.00007270000000000,0.00012700000000000,-0.00000748000000000,-0.00015400000000000,0.12400000000000000,0.00056900000000000,-0.12600000000000000,0.00007780000000000,0.00074800000000000,0.45400000000000000,0.54400000000000000
178000.00000000000000000,-0.00009090000000000,-0.00008070000000000,-0.00007070000000000,-0.00000002610000000,-0.00000000629000000,0.00007270000000000,0.00012700000000000,-0.00000737000000000,-0.00015400000000000,0.12400000000000000,0.00056800000000000,-0.12600000000000000,0.00006720000000000,0.00073400000000000,0.45500000000000000,0.54500000000000000
178000.00000000000000000,-0.00009090000000000,-0.00008070000000000,-0.00007070000000000,-0.00000002690000000,0.00000001460000000,0.00007270000000000,0.00012700000000000,-0.00000738000000000,-0.00015400000000000,0.12400000000000000,0.00056800000000000,-0.12600000000000000,0.00007250000000000,0.00073900000000000,0.45500000000000000,0.54500000000000000
178000.00000000000000000,-0.00009110000000000,-0.00008080000000000,-0.00007080000000000,-0.00000002750000000,0.00000004040000000,0.00007280000000000,0.00012700000000000,-0.00000749000000000,-0.00015400000000000,0.12400000000000000,0.00056900000000000,-0.12700000000000000,0.00008400000000000,0.00075100000000000,0.45500000000000000,0.54500000000000000
178000.00000000000000000,-0.00009120000000000,-0.00008090000000000,-0.00007090000000000,-0.00000002710000000,0.00000003390000000,0.00007280000000000,0.00012700000000000,-0.00000757000000000,-0.00015500000000000,0.12400000000000000,0.00057000000000000,-0.12700000000000000,0.00008550000000000,0.00075300000000000,0.45600000000000000,0.54600000000000000
178000.00000000000000000,-0.00009120000000000,-0.00008090000000000,-0.00007090000000000,-0.00000002650000000,0.00000001460000000,0.00007280000000000,0.00012700000000000,-0.00000757000000000,-0.00015500000000000,0.12400000000000000,0.00057000000000000,-0.12700000000000000,0.00007980000000000,0.00075100000000000,0.45600000000000000,0.54600000000000000
178000.00000000000000000,-0.00009120000000000,-0.00008090000000000,-0.00007090000000000,-0.00000002620000000,0.00000000077600000,0.00007280000000000,0.00012700000000000,-0.00000754000000000,-0.00015500000000000,0.12500000000000000,0.00057000000000000,-0.12700000000000000,0.00007400000000000,0.00074600000000000,0.45600000000000000,0.54600000000000000
178000.00000000000000000,-0.00009120000000000,-0.00008100000000000,-0.00007090000000000,-0.00000002640000000,0.00000001240000000,0.00007280000000000,0.00012700000000000,-0.00000757000000000,-0.00015500000000000,0.12500000000000000,0.00057000000000000,-0.12700000000000000,0.00007770000000000,0.00074600000000000,0.45600000000000000,0.54700000000000000
178000.00000000000000000,-0.00009130000000000,-0.00008100000000000,-0.00007100000000000,-0.00000002750000000,0.00000004220000000,0.00007280000000000,0.00012700000000000,-0.00000760000000000,-0.00015500000000000,0.12500000000000000,0.00057000000000000,-0.12700000000000000,0.00008650000000000,0.00075300000000000,0.45700000000000000,0.54700000000000000
178000.00000000000000000,-0.00009130000000000,-0.00008100000000000,-0.00007100000000000,-0.00000002780000000,0.00000004690000000,0.00007280000000000,0.00012700000000000,-0.00000759000000000,-0.00015500000000000,0.12500000000000000,0.00057000000000000,-0.12800000000000000,0.00008660000000000,0.00075300000000000,0.45700000000000000,0.54700000000000000
179000.00000000000000000,-0.00009130000000000,-0.00008100000000000,-0.00007100000000000,-0.00000002690000000,0.00000002100000000,0.00007290000000000,0.00012700000000000,-0.00000758000000000,-0.00015500000000000,0.12500000000000000,0.00057000000000000,-0.12800000000000000,0.00007840000000000,0.00074400000000000,0.45700000000000000,0.54800000000000000
179000.00000000000000000,-0.00009140000000000,-0.00008110000000000,-0.00007100000000000,-0.00000002630000000,0.00000000551000000,0.00007290000000000,0.00012700000000000,-0.00000762000000000,-0.00015500000000000,0.12500000000000000,0.00057100000000000,-0.12800000000000000,0.00007540000000000,0.00074400000000000,0.45700000000000000,0.54800000000000000
179000.00000000000000000,-0.00009150000000000,-0.00008120000000000,-0.00007110000000000,-0.00000002670000000,0.00000002110000000,0.00007290000000000,0.00012700000000000,-0.00000771000000000,-0.00015500000000000,0.12600000000000000,0.00057200000000000,-0.12800000000000000,0.00008360000000000,0.00075400000000000,0.45800000000000000,0.54800000000000000
179000.00000000000000000,-0.00009160000000000,-0.00008130000000000,-0.00007120000000000,-0.00000002730000000,0.00000004560000000,0.00007290000000000,0.00012800000000000,-0.00000781000000000,-0.00015500000000000,0.12600000000000000,0.00057300000000000,-0.12800000000000000,0.00009380000000000,0.00076300000000000,0.45800000000000000,0.54900000000000000
179000.00000000000000000,-0.00009160000000000,-0.00008120000000000,-0.00007120000000000,-0.00000002760000000,0.00000004850000000,0.00007290000000000,0.00012800000000000,-0.00000776000000000,-0.00015500000000000,0.12600000000000000,0.00057200000000000,-0.12800000000000000,0.00009160000000000,0.00075800000000000,0.45800000000000000,0.54900000000000000
179000.00000000000000000,-0.00009150000000000,-0.00008110000000000,-0.00007100000000000,-0.00000002750000000,0.00000003280000000,0.00007290000000000,0.00012800000000000,-0.00000763000000000,-0.00015500000000000,0.12600000000000000,0.00057100000000000,-0.12900000000000000,0.00008120000000000,0.00074700000000000,0.45800000000000000,0.54900000000000000
179000.00000000000000000,-0.00009150000000000,-0.00008110000000000,-0.00007100000000000,-0.00000002700000000,0.00000001490000000,0.00007290000000000,0.00012800000000000,-0.00000760000000000,-0.00015500000000000,0.12600000000000000,0.00057100000000000,-0.12900000000000000,0.00007420000000000,0.00074100000000000,0.45900000000000000,0.55000000000000000
179000.00000000000000000,-0.00009170000000000,-0.00008130000000000,-0.00007110000000000,-0.00000002680000000,0.00000001850000000,0.00007300000000000,0.00012800000000000,-0.00000771000000000,-0.00015500000000000,0.12600000000000000,0.00057200000000000,-0.12900000000000000,0.00008000000000000,0.00074700000000000,0.45900000000000000,0.55000000000000000
179000.00000000000000000,-0.00009180000000000,-0.00008140000000000,-0.00007130000000000,-0.00000002720000000,0.00000003930000000,0.00007300000000000,0.00012800000000000,-0.00000787000000000,-0.00015500000000000,0.12700000000000000,0.00057300000000000,-0.12900000000000000,0.00009210000000000,0.00076200000000000,0.45900000000000000,0.55000000000000000
179000.00000000000000000,-0.00009190000000000,-0.00008150000000000,-0.00007130000000000,-0.00000002710000000,0.00000003690000000,0.00007300000000000,0.00012800000000000,-0.00000789000000000,-0.00015500000000000,0.12700000000000000,0.00057400000000000,-0.12900000000000000,0.00009140000000000,0.00076200000000000,0.45900000000000000,0.55100000000000000
180000.00000000000000000,-0.00009180000000000,-0.00008130000000000,-0.00007120000000000,-0.00000002650000000,0.00000001140000000,0.00007300000000000,0.00012800000000000,-0.00000776000000000,-0.00015500000000000,0.12700000000000000,0.00057300000000000,-0.13000000000000000,0.00007830000000000,0.00074600000000000,0.46000000000000000,0.55100000000000000
180000.00000000000000000,-0.00009170000000000,-0.00008130000000000,-0.00007110000000000,-0.00000002650000000,-0.00000000048700000,0.00007300000000000,0.00012800000000000,-0.00000764000000000,-0.00015500000000000,0.12700000000000000,0.00057200000000000,-0.13000000000000000,0.00006900000000000,0.00073500000000000,0.46000000000000000,0.55100000000000000
180000.00000000000000000,-0.00009180000000000,-0.00008130000000000,-0.00007110000000000,-0.00000002690000000,0.00000001250000000,0.00007300000000000,0.00012800000000000,-0.00000768000000000,-0.00015500000000000,0.12700000000000000,0.00057200000000000,-0.13000000000000000,0.00007320000000000,0.00073900000000000,0.46000000000000000,0.55200000000000000
180000.00000000000000000,-0.00009190000000000,-0.00008150000000000,-0.00007130000000000,-0.00000002720000000,0.00000003070000000,0.00007300000000000,0.00012800000000000,-0.00000783000000000,-0.00015500000000000,0.12700000000000000,0.00057300000000000,-0.13000000000000000,0.00008460000000000,0.00075100000000000,0.46100000000000000,0.55200000000000000
180000.00000000000000000,-0.00009210000000000,-0.00008160000000000,-0.00007140000000000,-0.00000002700000000,0.00000003310000000,0.00007310000000000,0.00012800000000000,-0.00000792000000000,-0.00015600000000000,0.12800000000000000,0.00057400000000000,-0.13000000000000000,0.00008930000000000,0.00075800000000000,0.46100000000000000,0.55300000000000000
180000.00000000000000000,-0.00009210000000000,-0.00008160000000000,-0.00007140000000000,-0.00000002660000000,0.00000001630000000,0.00007310000000000,0.00012800000000000,-0.00000791000000000,-0.00015600000000000,0.12800000000000000,0.00057400000000000,-0.13000000000000000,0.00008310000000000,0.00075400000000000,0.46100000000000000,0.55300000000000000
180000.00000000000000000,-0.00009200000000000,-0.00008150000000000,-0.00007130000000000,-0.00000002620000000,0.00000000240000000,0.00007310000000000,0.00012800000000000,-0.00000785000000000,-0.00015500000000000,0.12800000000000000,0.00057400000000000,-0.13100000000000000,0.00007620000000000,0.00074600000000000,0.46100000000000000,0.55300000000000000
180000.00000000000000000,-0.00009200000000000,-0.00008150000000000,-0.00007130000000000,-0.00000002690000000,0.00000001730000000,0.00007310000000000,0.00012800000000000,-0.00000783000000000,-0.00015600000000000,0.12800000000000000,0.00057400000000000,-0.13100000000000000,0.00007880000000000,0.00074600000000000,0.46200000000000000,0.55400000000000000
180000.00000000000000000,-0.00009210000000000,-0.00008160000000000,-0.00007140000000000,-0.00000002800000000,0.00000004690000000,0.00007310000000000,0.00012800000000000,-0.00000789000000000,-0.00015600000000000,0.12800000000000000,0.00057400000000000,-0.13100000000000000,0.00008860000000000,0.00075400000000000,0.46200000000000000,0.55400000000000000
180000.00000000000000000,-0.00009220000000000,-0.00008170000000000,-0.00007140000000000,-0.00000002780000000,0.00000004650000000,0.00007310000000000,0.00012800000000000,-0.00000794000000000,-0.00015600000000000,0.12800000000000000,0.00057500000000000,-0.13100000000000000,0.00009010000000000,0.00075500000000000,0.46200000000000000,0.55400000000000000
181000.00000000000000000,-0.00009220000000000,-0.00008170000000000,-0.00007140000000000,-0.00000002690000000,0.00000002330000000,0.00007310000000000,0.00012800000000000,-0.00000795000000000,-0.00015600000000000,0.12900000000000000,0.00057500000000000,-0.13100000000000000,0.00008390000000000,0.00075100000000000,0.46200000000000000,0.55500000000000000
181000.00000000000000000,-0.00009230000000000,-0.00008170000000000,-0.00007150000000000,-0.00000002650000000,0.00000000966000000,0.00007320000000000,0.00012800000000000,-0.00000797000000000,-0.00015600000000000,0.12900000000000000,0.00057500000000000,-0.13100000000000000,0.00008040000000000,0.00075000000000000,0.46300000000000000,0.55500000000000000
181000.00000000000000000,-0.00009240000000000,-0.00008180000000000,-0.00007150000000000,-0.00000002670000000,0.00000001820000000,0.00007320000000000,0.00012800000000000,-0.00000802000000000,-0.00015600000000000,0.12900000000000000,0.00057600000000000,-0.13200000000000000,0.00008430000000000,0.00075300000000000,0.46300000000000000,0.55500000000000000
181000.00000000000000000,-0.00009240000000000,-0.00008180000000000,-0.00007160000000000,-0.00000002750000000,0.00000004090000000,0.00007320000000000,0.00012800000000000,-0.00000806000000000,-0.00015600000000000,0.12900000000000000,0.00057600000000000,-0.13200000000000000,0.00009170000000000,0.00075800000000000,0.46300000000000000,0.55600000000000000
181000.00000000000000000,-0.00009240000000000,-0.00008180000000000,-0.00007150000000000,-0.00000002790000000,0.00000004910000000,0.00007320000000000,0.00012800000000000,-0.00000802000000000,-0.00015600000000000,0.12900000000000000,0.00057600000000000,-0.13200000000000000,0.00009140000000000,0.00075700000000000,0.46300000000000000,0.55600000000000000
181000.00000000000000000,-0.00009240000000000,-0.00008180000000000,-0.00007140000000000,-0.00000002740000000,0.00000002970000000,0.00007320000000000,0.00012800000000000,-0.00000795000000000,-0.00015600000000000,0.13000000000000000,0.00057500000000000,-0.13200000000000000,0.00008230000000000,0.00074800000000000,0.46400000000000000,0.55600000000000000
181000.00000000000000000,-0.00009240000000000,-0.00008180000000000,-0.00007150000000000,-0.00000002660000000,0.00000001030000000,0.00007320000000000,0.00012800000000000,-0.00000796000000000,-0.00015600000000000,0.13000000000000000,0.00057600000000000,-0.13200000000000000,0.00007710000000000,0.00074400000000000,0.46400000000000000,0.55700000000000000
181000.00000000000000000,-0.00009250000000000,-0.00008190000000000,-0.00007160000000000,-0.00000002670000000,0.00000001670000000,0.00007320000000000,0.00012800000000000,-0.00000807000000000,-0.00015600000000000,0.13000000000000000,0.00057700000000000,-0.13200000000000000,0.00008320000000000,0.00075200000000000,0.46400000000000000,0.55700000000000000
181000.00000000000000000,-0.00009270000000000,-0.00008200000000000,-0.00007170000000000,-0.00000002720000000,0.00000003680000000,0.00007330000000000,0.00012800000000000,-0.00000818000000000,-0.00015600000000000,0.13000000000000000,0.00057800000000000,-0.13300000000000000,0.00009350000000000,0.00076400000000000,0.46400000000000000,0.55700000000000000
181000.00000000000000000,-0.00009270000000000,-0.00008200000000000,-0.00007170000000000,-0.00000002730000000,0.00000003640000000,0.00007330000000000,0.00012800000000000,-0.00000816000000000,-0.00015600000000000,0.13000000000000000,0.00057800000000000,-0.13300000000000000,0.00009210000000000,0.00076000000000000,0.46500000000000000,0.55800000000000000
182000.00000000000000000,-0.00009260000000000,-0.00008190000000000,-0.00007160000000000,-0.00000002700000000,0.00000001730000000,0.00007330000000000,0.00012800000000000,-0.00000804000000000,-0.00015600000000000,0.13000000000000000,0.00057700000000000,-0.13300000000000000,0.00007990000000000,0.00074600000000000,0.46500000000000000,0.55800000000000000
182000.00000000000000000,-0.00009260000000000,-0.00008190000000000,-0.00007150000000000,-0.00000002680000000,0.00000000469000000,0.00007330000000000,0.00012800000000000,-0.00000796000000000,-0.00015600000000000,0.13100000000000000,0.00057600000000000,-0.13300000000000000,0.00007180000000000,0.00073800000000000,0.46500000000000000,0.55800000000000000
182000.00000000000000000,-0.00009260000000000,-0.00008200000000000,-0.00007150000000000,-0.00000002670000000,0.00000000775000000,0.00007330000000000,0.00012800000000000,-0.00000802000000000,-0.00015600000000000,0.13100000000000000,0.00057700000000000,-0.13300000000000000,0.00007510000000000,0.00074100000000000,0.46500000000000000,0.55900000000000000
182000.00000000000000000,-0.00009280000000000,-0.00008210000000000,-0.00007170000000000,-0.00000002710000000,0.00000002630000000,0.00007330000000000,0.00012800000000000,-0.00000818000000000,-0.00015600000000000,0.13100000000000000,0.00057800000000000,-0.13400000000000000,0.00008720000000000,0.00075400000000000,0.46600000000000000,0.55900000000000000
182000.00000000000000000,-0.00009290000000000,-0.00008220000000000,-0.00007180000000000,-0.00000002720000000,0.00000003320000000,0.00007330000000000,0.00012800000000000,-0.00000827000000000,-0.00015600000000000,0.13100000000000000,0.00057900000000000,-0.13400000000000000,0.00009240000000000,0.00076200000000000,0.46600000000000000,0.55900000000000000
182000.00000000000000000,-0.00009290000000000,-0.00008220000000000,-0.00007180000000000,-0.00000002670000000,0.00000001520000000,0.00007340000000000,0.00012800000000000,-0.00000821000000000,-0.00015600000000000,0.13100000000000000,0.00057800000000000,-0.13400000000000000,0.00008440000000000,0.00075300000000000,0.46600000000000000,0.56000000000000000
182000.00000000000000000,-0.00009280000000000,-0.00008210000000000,-0.00007170000000000,-0.00000002650000000,0.00000000497000000,0.00007340000000000,0.00012800000000000,-0.00000813000000000,-0.00015600000000000,0.13100000000000000,0.00057800000000000,-0.13400000000000000,0.00007700000000000,0.00074400000000000,0.46700000000000000,0.56000000000000000
182000.00000000000000000,-0.00009290000000000,-0.00008210000000000,-0.00007170000000000,-0.00000002720000000,0.00000002130000000,0.00007340000000000,0.00012800000000000,-0.00000812000000000,-0.00015600000000000,0.13200000000000000,0.00057800000000000,-0.13400000000000000,0.00008030000000000,0.00074600000000000,0.46700000000000000,0.56000000000000000
182000.00000000000000000,-0.00009290000000000,-0.00008220000000000,-0.00007170000000000,-0.00000002730000000,0.00000005020000000,0.00007340000000000,0.00012800000000000,-0.00000816000000000,-0.00015700000000000,0.13200000000000000,0.00057800000000000,-0.13400000000000000,0.00009020000000000,0.00075400000000000,0.46700000000000000,0.56100000000000000
182000.00000000000000000,-0.00009280000000000,-0.00008200000000000,-0.00007160000000000,-0.00000002910000000,0.00000004900000000,0.00007310000000000,0.00012800000000000,-0.00000828000000000,-0.00015600000000000,0.13200000000000000,0.00057700000000000,-0.13500000000000000,0.00009170000000000,0.00075700000000000,0.46700000000000000,0.56100000000000000
183000.00000000000000000,-0.00009310000000000,-0.00008230000000000,-0.00007190000000000,-0.00000002480000000,0.00000000003160000,0.00007340000000000,0.00012900000000000,-0.00000829000000000,-0.00015700000000000,0.13200000000000000,0.00058000000000000,-0.13500000000000000,0.00008060000000000,0.00074100000000000,0.46800000000000000,0.56100000000000000
183000.00000000000000000,-0.00009310000000000,-0.00008230000000000,-0.00007180000000000,-0.00000002550000000,-0.00000000984000000,0.00007340000000000,0.00012800000000000,-0.00000835000000000,-0.00015700000000000,0.13200000000000000,0.00057900000000000,-0.13500000000000000,0.00007450000000000,0.00074100000000000,0.46800000000000000,0.56200000000000000
183000.00000000000000000,-0.00009310000000000,-0.00008230000000000,-0.00007180000000000,-0.00000002680000000,0.00000001220000000,0.00007350000000000,0.00012900000000000,-0.00000819000000000,-0.00015700000000000,0.13200000000000000,0.00057900000000000,-0.13500000000000000,0.00008150000000000,0.00075000000000000,0.46800000000000000,0.56200000000000000
183000.00000000000000000,-0.00009310000000000,-0.00008230000000000,-0.00007180000000000,-0.00000002860000000,0.00000005150000000,0.00007350000000000,0.00012900000000000,-0.00000824000000000,-0.00015700000000000,0.13300000000000000,0.00057900000000000,-0.13500000000000000,0.00009310000000000,0.00076100000000000,0.46800000000000000,0.56200000000000000
183000.00000000000000000,-0.00009330000000000,-0.00008250000000000,-0.00007200000000000,-0.00000002880000000,0.00000005620000000,0.00007350000000000,0.00012900000000000,-0.00000842000000000,-0.00015700000000000,0.13300000000000000,0.00058100000000000,-0.13500000000000000,0.00009190000000000,0.00075800000000000,0.46800000000000000,0.56300000000000000
183000.00000000000000000,-0.00009320000000000,-0.00008240000000000,-0.00007180000000000,-0.00000002640000000,0.00000000764000000,0.00007350000000000,0.00012900000000000,-0.00000826000000000,-0.00015700000000000,0.13300000000000000,0.00057900000000000,-0.13500000000000000,0.00007630000000000,0.00073700000000000,0.46900000000000000,0.56300000000000000
183000.00000000000000000,-0.00009320000000000,-0.00008230000000000,-0.00007180000000000,-0.00000002570000000,-0.00000001090000000,0.00007350000000000,0.00012900000000000,-0.00000819000000000,-0.00015700000000000,0.13300000000000000,0.00057900000000000,-0.13600000000000000,0.00007140000000000,0.00073500000000000,0.46900000000000000,0.56300000000000000
183000.00000000000000000,-0.00009330000000000,-0.00008250000000000,-0.00007190000000000,-0.00000002680000000,0.00000001390000000,0.00007350000000000,0.00012900000000000,-0.00000833000000000,-0.00015700000000000,0.13300000000000000,0.00058000000000000,-0.13600000000000000,0.00008270000000000,0.00075200000000000,0.46900000000000000,0.56400000000000000
183000.00000000000000000,-0.00009350000000000,-0.00008260000000000,-0.00007210000000000,-0.00000002720000000,0.00000003530000000,0.00007350000000000,0.00012900000000000,-0.00000847000000000,-0.00015700000000000,0.13300000000000000,0.00058200000000000,-0.13600000000000000,0.00009390000000000,0.00076200000000000,0.47000000000000000,0.56400000000000000
183000.00000000000000000,-0.00009350000000000,-0.00008260000000000,-0.00007200000000000,-0.00000002810000000,0.00000004570000000,0.00007360000000000,0.00012900000000000,-0.00000844000000000,-0.00015700000000000,0.13400000000000000,0.00058100000000000,-0.13600000000000000,0.00009350000000000,0.00076300000000000,0.47000000000000000,0.56400000000000000
184000.00000000000000000,-0.00009330000000000,-0.00008240000000000,-0.00007180000000000,-0.00000002750000000,0.00000001800000000,0.00007360000000000,0.00012900000000000,-0.00000825000000000,-0.00015700000000000,0.13400000000000000,0.00058000000000000,-0.13600000000000000,0.00007770000000000,0.00074600000000000,0.47000000000000000,0.56500000000000000
184000.00000000000000000,-0.00009330000000000,-0.00008240000000000,-0.00007180000000000,-0.00000002570000000,-0.00000001880000000,0.00007360000000000,0.00012900000000000,-0.00000819000000000,-0.00015700000000000,0.13400000000000000,0.00057900000000000,-0.13700000000000000,0.00006480000000000,0.00072600000000000,0.47000000000000000,0.56500000000000000
184000.00000000000000000,-0.00009350000000000,-0.00008250000000000,-0.00007190000000000,-0.00000002640000000,0.00000000350000000,0.00007360000000000,0.00012900000000000,-0.00000832000000000,-0.00015700000000000,0.13400000000000000,0.00058100000000000,-0.13700000000000000,0.00007480000000000,0.00073900000000000,0.47100000000000000,0.56500000000000000
184000.00000000000000000,-0.00009360000000000,-0.00008270000000000,-0.00007210000000000,-0.00000002720000000,0.00000003280000000,0.00007360000000000,0.00012900000000000,-0.00000847000000000,-0.00015700000000000,0.13400000000000000,0.00058200000000000,-0.13700000000000000,0.00009090000000000,0.00075800000000000,0.47100000000000000,0.56600000000000000
184000.00000000000000000,-0.00009370000000000,-0.00008280000000000,-0.00007220000000000,-0.00000002720000000,0.00000003530000000,0.00007360000000000,0.00012900000000000,-0.00000856000000000,-0.00015700000000000,0.13400000000000000,0.00058300000000000,-0.13700000000000000,0.00009460000000000,0.00076300000000000,0.47100000000000000,0.56600000000000000
184000.00000000000000000,-0.00009370000000000,-0.00008270000000000,-0.00007210000000000,-0.00000002740000000,0.00000002320000000,0.00007360000000000,0.00012900000000000,-0.00000844000000000,-0.00015700000000000,0.13500000000000000,0.00058200000000000,-0.13700000000000000,0.00008560000000000,0.00075700000000000,0.47100000000000000,0.56600000000000000
184000.00000000000000000,-0.00009360000000000,-0.00008260000000000,-0.00007200000000000,-0.00000002700000000,0.00000000838000000,0.00007360000000000,0.00012900000000000,-0.00000835000000000,-0.00015700000000000,0.13500000000000000,0.00058100000000000,-0.13700000000000000,0.00007660000000000,0.00074500000000000,0.47200000000000000,0.56700000000000000
184000.00000000000000000,-0.00009370000000000,-0.00008270000000000,-0.00007200000000000,-0.00000002700000000,0.00000001820000000,0.00007370000000000,0.00012900000000000,-0.00000840000000000,-0.00015700000000000,0.13500000000000000,0.00058200000000000,-0.13800000000000000,0.00008030000000000,0.00074400000000000,0.47200000000000000,0.56700000000000000
184000.00000000000000000,-0.00009380000000000,-0.00008280000000000,-0.00007220000000000,-0.00000002800000000,0.00000004620000000,0.00007370000000000,0.00012900000000000,-0.00000851000000000,-0.00015700000000000,0.13500000000000000,0.00058300000000000,-0.13800000000000000,0.00009250000000000,0.00075500000000000,0.47200000000000000,0.56700000000000000
184000.00000000000000000,-0.00009390000000000,-0.00008290000000000,-0.00007220000000000,-0.00000002780000000,0.00000004450000000,0.00007370000000000,0.00012900000000000,-0.00000859000000000,-0.00015800000000000,0.13500000000000000,0.00058400000000000,-0.13800000000000000,0.00009510000000000,0.00075900000000000,0.47200000000000000,0.56800000000000000
185000.00000000000000000,-0.00009390000000000,-0.00008290000000000,-0.00007220000000000,-0.00000002720000000,0.00000002000000000,0.00007370000000000,0.00012900000000000,-0.00000856000000000,-0.00015800000000000,0.13600000000000000,0.00058300000000000,-0.13800000000000000,0.00008610000000000,0.00075400000000000,0.47300000000000000,0.56800000000000000
185000.00000000000000000,-0.00009390000000000,-0.00008290000000000,-0.00007220000000000,-0.00000002660000000,0.00000000087500000,0.00007370000000000,0.00012900000000000,-0.00000853000000000,-0.00015800000000000,0.13600000000000000,0.00058300000000000,-0.13800000000000000,0.00007830000000000,0.00074700000000000,0.47300000000000000,0.56900000000000000
185000.00000000000000000,-0.00009400000000000,-0.00008290000000000,-0.00007220000000000,-0.00000002710000000,0.00000001350000000,0.00007370000000000,0.00012900000000000,-0.00000854000000000,-0.00015800000000000,0.13600000000000000,0.00058300000000000,-0.13800000000000000,0.00008190000000000,0.00074800000000000,0.47300000000000000,0.56900000000000000
185000.00000000000000000,-0.00009400000000000,-0.00008300000000000,-0.00007230000000000,-0.00000002800000000,0.00000003920000000,0.00007370000000000,0.00012900000000000,-0.00000859000000000,-0.00015800000000000,0.13600000000000000,0.00058400000000000,-0.13900000000000000,0.00009000000000000,0.00075300000000000,0.47300000000000000,0.56900000000000000
185000.00000000000000000,-0.00009400000000000,-0.00008300000000000,-0.00007220000000000,-0.00000002770000000,0.00000003620000000,0.00007380000000000,0.00012900000000000,-0.00000858000000000,-0.00015800000000000,0.13600000000000000,0.00058400000000000,-0.13900000000000000,0.00008890000000000,0.00075000000000000,0.47400000000000000,0.56900000000000000
185000.00000000000000000,-0.00009400000000000,-0.00008300000000000,-0.00007220000000000,-0.00000002700000000,0.00000001510000000,0.00007380000000000,0.00012900000000000,-0.00000855000000000,-0.00015800000000000,0.13600000000000000,0.00058400000000000,-0.13900000000000000,0.00008080000000000,0.00074600000000000,0.47400000000000000,0.57000000000000000
185000.00000000000000000,-0.00009410000000000,-0.00008300000000000,-0.00007220000000000,-0.00000002680000000,0.00000000490000000,0.00007380000000000,0.00012900000000000,-0.00000856000000000,-0.00015800000000000,0.13700000000000000,0.00058400000000000,-0.13900000000000000,0.00007820000000000,0.00074800000000000,0.47400000000000000,0.57000000000000000
185000.00000000000000000,-0.00009420000000000,-0.00008310000000000,-0.00007230000000000,-0.00000002670000000,0.00000001200000000,0.00007380000000000,0.00012900000000000,-0.00000865000000000,-0.00015800000000000,0.13700000000000000,0.00058500000000000,-0.13900000000000000,0.00008520000000000,0.00075400000000000,0.47400000000000000,0.57100000000000000
185000.00000000000000000,-0.00009430000000000,-0.00008320000000000,-0.00007240000000000,-0.00000002750000000,0.00000003800000000,0.00007380000000000,0.00012900000000000,-0.00000874000000000,-0.00015800000000000,0.13700000000000000,0.00058600000000000,-0.14000000000000000,0.00009520000000000,0.00076300000000000,0.47500000000000000,0.57100000000000000
185000.00000000000000000,-0.00009430000000000,-0.00008320000000000,-0.00007240000000000,-0.00000002780000000,0.00000004020000000,0.00007380000000000,0.00012900000000000,-0.00000870000000000,-0.00015800000000000,0.13700000000000000,0.00058500000000000,-0.14000000000000000,0.00009260000000000,0.00075900000000000,0.47500000000000000,0.57100000000000000
186000.00000000000000000,-0.00009420000000000,-0.00008310000000000,-0.00007230000000000,-0.00000002670000000,0.00000000806000000,0.00007380000000000,0.00012900000000000,-0.00000857000000000,-0.00015800000000000,0.13700000000000000,0.00058400000000000,-0.14000000000000000,0.00007740000000000,0.00074100000000000,0.47500000000000000,0.57200000000000000
186000.00000000000000000,-0.00009420000000000,-0.00008310000000000,-0.00007220000000000,-0.00000002660000000,-0.00000000400000000,0.00007390000000000,0.00012900000000000,-0.00000854000000000,-0.00015800000000000,0.13700000000000000,0.00058400000000000,-0.14000000000000000,0.00007120000000000,0.00073600000000000,0.47500000000000000,0.57200000000000000
186000.00000000000000000,-0.00009430000000000,-0.00008320000000000,-0.00007240000000000,-0.00000002710000000,0.00000001190000000,0.00007390000000000,0.00012900000000000,-0.00000867000000000,-0.00015800000000000,0.13800000000000000,0.00058500000000000,-0.14000000000000000,0.00008070000000000,0.00074800000000000,0.47600000000000000,0.57200000000000000
186000.00000000000000000,-0.00009450000000000,-0.00008340000000000,-0.00007250000000000,-0.00000002730000000,0.00000002930000000,0.00007390000000000,0.00012900000000000,-0.00000883000000000,-0.00015800000000000,0.13800000000000000,0.00058700000000000,-0.14000000000000000,0.00009310000000000,0.00075900000000000,0.47600000000000000,0.57300000000000000
186000.00000000000000000,-0.00009460000000000,-0.00008340000000000,-0.00007260000000000,-0.00000002770000000,0.00000003520000000,0.00007390000000000,0.00012900000000000,-0.00000887000000000,-0.00015800000000000,0.13800000000000000,0.00058700000000000,-0.14100000000000000,0.00009540000000000,0.00076200000000000,0.47600000000000000,0.57300000000000000
186000.00000000000000000,-0.00009450000000000,-0.00008330000000000,-0.00007250000000000,-0.00000002720000000,0.00000001670000000,0.00007390000000000,0.00012900000000000,-0.00000876000000000,-0.00015800000000000,0.13800000000000000,0.00058600000000000,-0.14100000000000000,0.00008450000000000,0.00075100000000000,0.47600000000000000,0.57300000000000000
186000.00000000000000000,-0.00009450000000000,-0.00008330000000000,-0.00007240000000000,-0.00000002680000000,0.00000000448000000,0.00007390000000000,0.00012900000000000,-0.00000867000000000,-0.00015800000000000,0.13800000000000000,0.00058500000000000,-0.14100000000000000,0.00007620000000000,0.00074000000000000,0.47700000000000000,0.57400000000000000
186000.00000000000000000,-0.00009450000000000,-0.00008330000000000,-0.00007240000000000,-0.00000002760000000,0.00000002370000000,0.00007390000000000,0.00012900000000000,-0.00000872000000000,-0.00015800000000000,0.13800000000000000,0.00058600000000000,-0.14100000000000000,0.00008320000000000,0.00074700000000000,0.47700000000000000,0.57400000000000000
186000.00000000000000000,-0.00009470000000000,-0.00008350000000000,-0.00007260000000000,-0.00000002830000000,0.00000004780000000,0.00007400000000000,0.00013000000000000,-0.00000885000000000,-0.00015800000000000,0.13900000000000000,0.00058700000000000,-0.14100000000000000,0.00009590000000000,0.00076000000000000,0.47700000000000000,0.57400000000000000
186000.00000000000000000,-0.00009480000000000,-0.00008360000000000,-0.00007270000000000,-0.00000002800000000,0.00000004500000000,0.00007400000000000,0.00013000000000000,-0.00000893000000000,-0.00015900000000000,0.13900000000000000,0.00058800000000000,-0.14100000000000000,0.00009860000000000,0.00076400000000000,0.47700000000000000,0.57500000000000000
187000.00000000000000000,-0.00009480000000000,-0.00008360000000000,-0.00007260000000000,-0.00000002700000000,0.00000001740000000,0.00007400000000000,0.00013000000000000,-0.00000890000000000,-0.00015900000000000,0.13900000000000000,0.00058800000000000,-0.14200000000000000,0.00008870000000000,0.00075600000000000,0.47800000000000000,0.57500000000000000
187000.00000000000000000,-0.00009480000000000,-0.00008350000000000,-0.00007260000000000,-0.00000002640000000,0.00000000120000000,0.00007400000000000,0.00013000000000000,-0.00000883000000000,-0.00015800000000000,0.13900000000000000,0.00058700000000000,-0.14200000000000000,0.00008010000000000,0.00074700000000000,0.47800000000000000,0.57500000000000000
187000.00000000000000000,-0.00009480000000000,-0.00008350000000000,-0.00007260000000000,-0.00000002720000000,0.00000001660000000,0.00007400000000000,0.00013000000000000,-0.00000883000000000,-0.00015900000000000,0.13900000000000000,0.00058700000000000,-0.14200000000000000,0.00008330000000000,0.00074900000000000,0.47800000000000000,0.57600000000000000
187000.00000000000000000,-0.00009480000000000,-0.00008360000000000,-0.00007260000000000,-0.00000002780000000,0.00000003590000000,0.00007400000000000,0.00013000000000000,-0.00000888000000000,-0.00015900000000000,0.14000000000000000,0.00058800000000000,-0.14200000000000000,0.00009020000000000,0.00075200000000000,0.47800000000000000,0.57600000000000000
187000.00000000000000000,-0.00009490000000000,-0.00008360000000000,-0.00007270000000000,-0.00000002790000000,0.00000003720000000,0.00007400000000000,0.00013000000000000,-0.00000890000000000,-0.00015900000000000,0.14000000000000000,0.00058800000000000,-0.14200000000000000,0.00009110000000000,0.00075400000000000,0.47900000000000000,0.57600000000000000
187000.00000000000000000,-0.00009490000000000,-0.00008360000000000,-0.00007260000000000,-0.00000002720000000,0.00000001600000000,0.00007410000000000,0.00013000000000000,-0.00000888000000000,-0.00015900000000000,0.14000000000000000,0.00058800000000000,-0.14300000000000000,0.00008420000000000,0.00075100000000000,0.47900000000000000,0.57700000000000000
187000.00000000000000000,-0.00009500000000000,-0.00008370000000000,-0.00007270000000000,-0.00000002630000000,-0.00000000357000000,0.00007410000000000,0.00013000000000000,-0.00000891000000000,-0.00015900000000000,0.14000000000000000,0.00058800000000000,-0.14300000000000000,0.00007970000000000,0.00074800000000000,0.47900000000000000,0.57700000000000000
187000.00000000000000000,-0.00009510000000000,-0.00008380000000000,-0.00007280000000000,-0.00000002680000000,0.00000001240000000,0.00007410000000000,0.00013000000000000,-0.00000899000000000,-0.00015900000000000,0.14000000000000000,0.00058900000000000,-0.14300000000000000,0.00008710000000000,0.00075500000000000,0.48000000000000000,0.57700000000000000
187000.00000000000000000,-0.00009510000000000,-0.00008380000000000,-0.00007280000000000,-0.00000002790000000,0.00000003790000000,0.00007410000000000,0.00013000000000000,-0.00000903000000000,-0.00015900000000000,0.14000000000000000,0.00059000000000000,-0.14300000000000000,0.00009510000000000,0.00076100000000000,0.48000000000000000,0.57800000000000000
187000.00000000000000000,-0.00009510000000000,-0.00008380000000000,-0.00007280000000000,-0.00000002790000000,0.00000003470000000,0.00007410000000000,0.00013000000000000,-0.00000898000000000,-0.00015900000000000,0.14100000000000000,0.00058900000000000,-0.14300000000000000,0.00009120000000000,0.00075400000000000,0.48000000000000000,0.57800000000000000
188000.00000000000000000,-0.00009510000000000,-0.00008370000000000,-0.00007270000000000,-0.00000002740000000,0.00000001370000000,0.00007410000000000,0.00013000000000000,-0.00000890000000000,-0.00015900000000000,0.14100000000000000,0.00058800000000000,-0.14300000000000000,0.00008020000000000,0.00074400000000000,0.48000000000000000,0.57800000000000000
188000.00000000000000000,-0.00009510000000000,-0.00008370000000000,-0.00007270000000000,-0.00000002690000000,0.00000000032300000,0.00007410000000000,0.00013000000000000,-0.00000891000000000,-0.00015900000000000,0.14100000000000000,0.00058900000000000,-0.14400000000000000,0.00007590000000000,0.00074200000000000,0.48100000000000000,0.57900000000000000
188000.00000000000000000,-0.00009530000000000,-0.00008390000000000,-0.00007280000000000,-0.00000002680000000,0.00000000877000000,0.00007420000000000,0.00013000000000000,-0.00000905000000000,-0.00015900000000000,0.14100000000000000,0.00059000000000000,-0.14400000000000000,0.00008450000000000,0.00075000000000000,0.48100000000000000,0.57900000000000000
188000.00000000000000000,-0.00009540000000000,-0.00008400000000000,-0.00007300000000000,-0.00000002740000000,0.00000003120000000,0.00007420000000000,0.00013000000000000,-0.00000918000000000,-0.00015900000000000,0.14100000000000000,0.00059100000000000,-0.14400000000000000,0.00009670000000000,0.00076200000000000,0.48100000000000000,0.57900000000000000
188000.00000000000000000,-0.00009540000000000,-0.00008400000000000,-0.00007300000000000,-0.00000002770000000,0.00000003630000000,0.00007420000000000,0.00013000000000000,-0.00000917000000000,-0.00015900000000000,0.14200000000000000,0.00059100000000000,-0.14400000000000000,0.00009710000000000,0.00076200000000000,0.48100000000000000,0.58000000000000000
188000.00000000000000000,-0.00009530000000000,-0.00008400000000000,-0.00007280000000000,-0.00000002730000000,0.00000001830000000,0.00007420000000000,0.00013000000000000,-0.00000905000000000,-0.00015900000000000,0.14200000000000000,0.00059000000000000,-0.14400000000000000,0.00008580000000000,0.00075000000000000,0.48200000000000000,0.58000000000000000
188000.00000000000000000,-0.00009530000000000,-0.00008390000000000,-0.00007280000000000,-0.00000002710000000,0.00000000894000000,0.00007420000000000,0.00013000000000000,-0.00000897000000000,-0.00015900000000000,0.14200000000000000,0.00059000000000000,-0.14400000000000000,0.00007890000000000,0.00074300000000000,0.48200000000000000,0.58000000000000000
188000.00000000000000000,-0.00009540000000000,-0.00008400000000000,-0.00007290000000000,-0.00000002770000000,0.00000002630000000,0.00007420000000000,0.00013000000000000,-0.00000906000000000,-0.00015900000000000,0.14200000000000000,0.00059000000000000,-0.14500000000000000,0.00008710000000000,0.00075100000000000,0.48200000000000000,0.58100000000000000
188000.00000000000000000,-0.00009560000000000,-0.00008420000000000,-0.00007300000000000,-0.00000002810000000,0.00000004580000000,0.00007420000000000,0.00013000000000000,-0.00000922000000000,-0.00015900000000000,0.14200000000000000,0.00059200000000000,-0.14500000000000000,0.00009960000000000,0.00076400000000000,0.48200000000000000,0.58100000000000000
188000.00000000000000000,-0.00009570000000000,-0.00008420000000000,-0.00007310000000000,-0.00000002770000000,0.00000004080000000,0.00007430000000000,0.00013000000000000,-0.00000928000000000,-0.00015900000000000,0.14200000000000000,0.00059300000000000,-0.14500000000000000,0.00010100000000000,0.00076600000000000,0.48300000000000000,0.58100000000000000
189000.00000000000000000,-0.00009560000000000,-0.00008420000000000,-0.00007300000000000,-0.00000002710000000,0.00000001810000000,0.00007430000000000,0.00013000000000000,-0.00000921000000000,-0.00015900000000000,0.14300000000000000,0.00059200000000000,-0.14500000000000000,0.00009080000000000,0.00075800000000000,0.48300000000000000,0.58200000000000000
189000.00000000000000000,-0.00009560000000000,-0.00008410000000000,-0.00007300000000000,-0.00000002690000000,0.00000000416000000,0.00007430000000000,0.00013000000000000,-0.00000913000000000,-0.00015900000000000,0.14300000000000000,0.00059100000000000,-0.14500000000000000,0.00008140000000000,0.00074800000000000,0.48300000000000000,0.58200000000000000
189000.00000000000000000,-0.00009560000000000,-0.00008410000000000,-0.00007300000000000,-0.00000002730000000,0.00000001430000000,0.00007430000000000,0.00013000000000000,-0.00000913000000000,-0.00015900000000000,0.14300000000000000,0.00059100000000000,-0.14600000000000000,0.00008340000000000,0.00074600000000000,0.48300000000000000,0.58200000000000000
189000.00000000000000000,-0.00009570000000000,-0.00008420000000000,-0.00007300000000000,-0.00000002800000000,0.00000003460000000,0.00007430000000000,0.00013000000000000,-0.00000920000000000,-0.00016000000000000,0.14300000000000000,0.00059200000000000,-0.14600000000000000,0.00009150000000000,0.00075300000000000,0.48400000000000000,0.58300000000000000
189000.00000000000000000,-0.00009580000000000,-0.00008430000000000,-0.00007310000000000,-0.00000002800000000,0.00000003420000000,0.00007430000000000,0.00013000000000000,-0.00000925000000000,-0.00016000000000000,0.14300000000000000,0.00059300000000000,-0.14600000000000000,0.00009310000000000,0.00075600000000000,0.48400000000000000,0.58300000000000000
189000.00000000000000000,-0.00009580000000000,-0.00008430000000000,-0.00007310000000000,-0.00000002690000000,0.00000000944000000,0.00007430000000000,0.00013000000000000,-0.00000925000000000,-0.00016000000000000,0.14300000000000000,0.00059300000000000,-0.14600000000000000,0.00008610000000000,0.00075100000000000,0.48400000000000000,0.58300000000000000
189000.00000000000000000,-0.00009580000000000,-0.00008430000000000,-0.00007310000000000,-0.00000002650000000,-0.00000000278000000,0.00007440000000000,0.00013000000000000,-0.00000925000000000,-0.00016000000000000,0.14400000000000000,0.00059300000000000,-0.14600000000000000,0.00008240000000000,0.00075000000000000,0.48400000000000000,0.58400000000000000
189000.00000000000000000,-0.00009590000000000,-0.00008440000000000,-0.00007310000000000,-0.00000002720000000,0.00000001480000000,0.00007440000000000,0.00013000000000000,-0.00000930000000000,-0.00016000000000000,0.14400000000000000,0.00059300000000000,-0.14600000000000000,0.00008860000000000,0.00075600000000000,0.48500000000000000,0.58400000000000000
189000.00000000000000000,-0.00009600000000000,-0.00008440000000000,-0.00007320000000000,-0.00000002790000000,0.00000003530000000,0.00007440000000000,0.00013000000000000,-0.00000933000000000,-0.00016000000000000,0.14400000000000000,0.00059400000000000,-0.14700000000000000,0.00009540000000000,0.00075900000000000,0.48500000000000000,0.58400000000000000
189000.00000000000000000,-0.00009600000000000,-0.00008440000000000,-0.00007320000000000,-0.00000002800000000,0.00000003650000000,0.00007440000000000,0.00013000000000000,-0.00000930000000000,-0.00016000000000000,0.14400000000000000,0.00059300000000000,-0.14700000000000000,0.00009340000000000,0.00075600000000000,0.48500000000000000,0.58500000000000000
190000.00000000000000000,-0.00009600000000000,-0.00008440000000000,-0.00007310000000000,-0.00000002750000000,0.00000001800000000,0.00007440000000000,0.00013000000000000,-0.00000926000000000,-0.00016000000000000,0.14400000000000000,0.00059300000000000,-0.14700000000000000,0.00008500000000000,0.00074900000000000,0.48500000000000000,0.58500000000000000
190000.00000000000000000,-0.00009600000000000,-0.00008440000000000,-0.00007310000000000,-0.00000002670000000,0.00000000082100000,0.00007440000000000,0.00013000000000000,-0.00000927000000000,-0.00016000000000000,0.14500000000000000,0.00059300000000000,-0.14700000000000000,0.00008080000000000,0.00074600000000000,0.48600000000000000,0.58500000000000000
190000.00000000000000000,-0.00009620000000000,-0.00008460000000000,-0.00007330000000000,-0.00000002690000000,0.00000001200000000,0.00007440000000000,0.00013000000000000,-0.00000939000000000,-0.00016000000000000,0.14500000000000000,0.00059400000000000,-0.14700000000000000,0.00008910000000000,0.00075500000000000,0.48600000000000000,0.58600000000000000
190000.00000000000000000,-0.00009630000000000,-0.00008470000000000,-0.00007340000000000,-0.00000002770000000,0.00000003480000000,0.00007450000000000,0.00013000000000000,-0.00000950000000000,-0.00016000000000000,0.14500000000000000,0.00059500000000000,-0.14800000000000000,0.00009970000000000,0.00076500000000000,0.48600000000000000,0.58600000000000000
190000.00000000000000000,-0.00009630000000000,-0.00008470000000000,-0.00007330000000000,-0.00000002780000000,0.00000003570000000,0.00007450000000000,0.00013000000000000,-0.00000947000000000,-0.00016000000000000,0.14500000000000000,0.00059500000000000,-0.14800000000000000,0.00009810000000000,0.00076200000000000,0.48600000000000000,0.58700000000000000
190000.00000000000000000,-0.00009620000000000,-0.00008460000000000,-0.00007320000000000,-0.00000002740000000,0.00000001910000000,0.00007450000000000,0.00013100000000000,-0.00000937000000000,-0.00016000000000000,0.14500000000000000,0.00059400000000000,-0.14800000000000000,0.00008740000000000,0.00075000000000000,0.48700000000000000,0.58700000000000000
190000.00000000000000000,-0.00009620000000000,-0.00008450000000000,-0.00007320000000000,-0.00000002730000000,0.00000001130000000,0.00007450000000000,0.00013100000000000,-0.00000932000000000,-0.00016000000000000,0.14500000000000000,0.00059400000000000,-0.14800000000000000,0.00008180000000000,0.00074500000000000,0.48700000000000000,0.58700000000000000
190000.00000000000000000,-0.00009630000000000,-0.00008460000000000,-0.00007330000000000,-0.00000002770000000,0.00000002440000000,0.00007450000000000,0.00013100000000000,-0.00000940000000000,-0.00016000000000000,0.14600000000000000,0.00059500000000000,-0.14800000000000000,0.00008960000000000,0.00075300000000000,0.48700000000000000,0.58800000000000000
190000.00000000000000000,-0.00009650000000000,-0.00008480000000000,-0.00007340000000000,-0.00000002810000000,0.00000004120000000,0.00007450000000000,0.00013100000000000,-0.00000955000000000,-0.00016000000000000,0.14600000000000000,0.00059600000000000,-0.14800000000000000,0.00010100000000000,0.00076400000000000,0.48700000000000000,0.58800000000000000
190000.00000000000000000,-0.00009660000000000,-0.00008490000000000,-0.00007350000000000,-0.00000002790000000,0.00000003870000000,0.00007450000000000,0.00013100000000000,-0.00000961000000000,-0.00016000000000000,0.14600000000000000,0.00059700000000000,-0.14900000000000000,0.00010200000000000,0.00076700000000000,0.48800000000000000,0.58800000000000000
191000.00000000000000000,-0.00009650000000000,-0.00008480000000000,-0.00007340000000000,-0.00000002730000000,0.00000001780000000,0.00007460000000000,0.00013100000000000,-0.00000954000000000,-0.00016000000000000,0.14600000000000000,0.00059600000000000,-0.14900000000000000,0.00009200000000000,0.00075800000000000,0.48800000000000000,0.58900000000000000
191000.00000000000000000,-0.00009650000000000,-0.00008480000000000,-0.00007340000000000,-0.00000002690000000,0.00000000297000000,0.00007460000000000,0.00013100000000000,-0.00000945000000000,-0.00016000000000000,0.14600000000000000,0.00059500000000000,-0.14900000000000000,0.00008260000000000,0.00074700000000000,0.48800000000000000,0.58900000000000000
191000.00000000000000000,-0.00009650000000000,-0.00008480000000000,-0.00007340000000000,-0.00000002740000000,0.00000001490000000,0.00007460000000000,0.00013100000000000,-0.00000946000000000,-0.00016000000000000,0.14700000000000000,0.00059600000000000,-0.14900000000000000,0.00008510000000000,0.00074700000000000,0.48800000000000000,0.58900000000000000
191000.00000000000000000,-0.00009660000000000,-0.00008490000000000,-0.00007340000000000,-0.00000002810000000,0.00000003420000000,0.00007460000000000,0.00013100000000000,-0.00000953000000000,-0.00016100000000000,0.14700000000000000,0.00059600000000000,-0.14900000000000000,0.00009350000000000,0.00075500000000000,0.48900000000000000,0.59000000000000000
191000.00000000000000000,-0.00009670000000000,-0.00008490000000000,-0.00007350000000000,-0.00000002780000000,0.00000002900000000,0.00007460000000000,0.00013100000000000,-0.00000958000000000,-0.00016100000000000,0.14700000000000000,0.00059700000000000,-0.15000000000000000,0.00009430000000000,0.00075600000000000,0.48900000000000000,0.59000000000000000
191000.00000000000000000,-0.00009670000000000,-0.00008490000000000,-0.00007350000000000,-0.00000002690000000,0.00000000897000000,0.00007460000000000,0.00013100000000000,-0.00000959000000000,-0.00016100000000000,0.14700000000000000,0.00059700000000000,-0.15000000000000000,0.00008850000000000,0.00075400000000000,0.48900000000000000,0.59000000000000000
191000.00000000000000000,-0.00009670000000000,-0.00008500000000000,-0.00007350000000000,-0.00000002660000000,0.00000000032700000,0.00007460000000000,0.00013100000000000,-0.00000959000000000,-0.00016100000000000,0.14700000000000000,0.00059700000000000,-0.15000000000000000,0.00008550000000000,0.00075300000000000,0.48900000000000000,0.59100000000000000
191000.00000000000000000,-0.00009680000000000,-0.00008500000000000,-0.00007350000000000,-0.00000002710000000,0.00000001380000000,0.00007460000000000,0.00013100000000000,-0.00000962000000000,-0.00016100000000000,0.14700000000000000,0.00059700000000000,-0.15000000000000000,0.00009030000000000,0.00075600000000000,0.49000000000000000,0.59100000000000000
191000.00000000000000000,-0.00009680000000000,-0.00008510000000000,-0.00007360000000000,-0.00000002800000000,0.00000003560000000,0.00007470000000000,0.00013100000000000,-0.00000964000000000,-0.00016100000000000,0.14800000000000000,0.00059800000000000,-0.15000000000000000,0.00009700000000000,0.00075900000000000,0.49000000000000000,0.59100000000000000
191000.00000000000000000,-0.00009680000000000,-0.00008500000000000,-0.00007360000000000,-0.00000002830000000,0.00000003780000000,0.00007470000000000,0.00013100000000000,-0.00000962000000000,-0.00016100000000000,0.14800000000000000,0.00059800000000000,-0.15000000000000000,0.00009550000000000,0.00075700000000000,0.49000000000000000,0.59200000000000000
192000.00000000000000000,-0.00009680000000000,-0.00008500000000000,-0.00007350000000000,-0.00000002750000000,0.00000001690000000,0.00007470000000000,0.00013100000000000,-0.00000959000000000,-0.00016100000000000,0.14800000000000000,0.00059700000000000,-0.15100000000000000,0.00008720000000000,0.00075000000000000,0.49000000000000000,0.59200000000000000
192000.00000000000000000,-0.00009690000000000,-0.00008510000000000,-0.00007360000000000,-0.00000002690000000,0.00000000339000000,0.00007470000000000,0.00013100000000000,-0.00000963000000000,-0.00016100000000000,0.14800000000000000,0.00059800000000000,-0.15100000000000000,0.00008460000000000,0.00074900000000000,0.49100000000000000,0.59200000000000000
192000.00000000000000000,-0.00009700000000000,-0.00008520000000000,-0.00007370000000000,-0.00000002720000000,0.00000001580000000,0.00007470000000000,0.00013100000000000,-0.00000974000000000,-0.00016100000000000,0.14800000000000000,0.00059900000000000,-0.15100000000000000,0.00009290000000000,0.00075800000000000,0.49100000000000000,0.59300000000000000
192000.00000000000000000,-0.00009720000000000,-0.00008530000000000,-0.00007380000000000,-0.00000002780000000,0.00000003440000000,0.00007470000000000,0.00013100000000000,-0.00000983000000000,-0.00016100000000000,0.14900000000000000,0.00060000000000000,-0.15100000000000000,0.00010200000000000,0.00076500000000000,0.49100000000000000,0.59300000000000000
192000.00000000000000000,-0.00009710000000000,-0.00008530000000000,-0.00007380000000000,-0.00000002790000000,0.00000003430000000,0.00007470000000000,0.00013100000000000,-0.00000980000000000,-0.00016100000000000,0.14900000000000000,0.00060000000000000,-0.15100000000000000,0.00009910000000000,0.00076100000000000,0.49100000000000000,0.59300000000000000
192000.00000000000000000,-0.00009710000000000,-0.00008520000000000,-0.00007360000000000,-0.00000002770000000,0.00000001980000000,0.00007480000000000,0.00013100000000000,-0.00000969000000000,-0.00016100000000000,0.14900000000000000,0.00059900000000000,-0.15200000000000000,0.00008880000000000,0.00075100000000000,0.49200000000000000,0.59400000000000000
192000.00000000000000000,-0.00009710000000000,-0.00008520000000000,-0.00007360000000000,-0.00000002740000000,0.00000001120000000,0.00007480000000000,0.00013100000000000,-0.00000965000000000,-0.00016100000000000,0.14900000000000000,0.00059800000000000,-0.15200000000000000,0.00008390000000000,0.00074600000000000,0.49200000000000000,0.59400000000000000
192000.00000000000000000,-0.00009720000000000,-0.00008530000000000,-0.00007370000000000,-0.00000002760000000,0.00000002180000000,0.00007480000000000,0.00013100000000000,-0.00000975000000000,-0.00016100000000000,0.14900000000000000,0.00059900000000000,-0.15200000000000000,0.00009150000000000,0.00075400000000000,0.49200000000000000,0.59400000000000000
192000.00000000000000000,-0.00009740000000000,-0.00008550000000000,-0.00007390000000000,-0.00000002810000000,0.00000003960000000,0.00007480000000000,0.00013100000000000,-0.00000989000000000,-0.00016100000000000,0.14900000000000000,0.00060100000000000,-0.15200000000000000,0.00010300000000000,0.00076600000000000,0.49200000000000000,0.59500000000000000
192000.00000000000000000,-0.00009740000000000,-0.00008550000000000,-0.00007390000000000,-0.00000002790000000,0.00000003650000000,0.00007480000000000,0.00013100000000000,-0.00000993000000000,-0.00016100000000000,0.15000000000000000,0.00060100000000000,-0.15200000000000000,0.00010300000000000,0.00076800000000000,0.49300000000000000,0.59500000000000000
193000.00000000000000000,-0.00009740000000000,-0.00008540000000000,-0.00007380000000000,-0.00000002720000000,0.00000001480000000,0.00007480000000000,0.00013100000000000,-0.00000985000000000,-0.00016100000000000,0.15000000000000000,0.00060000000000000,-0.15200000000000000,0.00009250000000000,0.00075700000000000,0.49300000000000000,0.59500000000000000
193000.00000000000000000,-0.00009730000000000,-0.00008540000000000,-0.00007370000000000,-0.00000002700000000,0.00000000369000000,0.00007480000000000,0.00013100000000000,-0.00000976000000000,-0.00016100000000000,0.15000000000000000,0.00060000000000000,-0.15300000000000000,0.00008400000000000,0.00074800000000000,0.49300000000000000,0.59600000000000000
193000.00000000000000000,-0.00009740000000000,-0.00008540000000000,-0.00007380000000000,-0.00000002760000000,0.00000001560000000,0.00007490000000000,0.00013100000000000,-0.00000977000000000,-0.00016100000000000,0.15000000000000000,0.00060000000000000,-0.15300000000000000,0.00008690000000000,0.00074900000000000,0.49300000000000000,0.59600000000000000
193000.00000000000000000,-0.00009750000000000,-0.00008550000000000,-0.00007380000000000,-0.00000002800000000,0.00000003070000000,0.00007490000000000,0.00013100000000000,-0.00000986000000000,-0.00016100000000000,0.15000000000000000,0.00060100000000000,-0.15300000000000000,0.00009500000000000,0.00075500000000000,0.49400000000000000,0.59600000000000000
193000.00000000000000000,-0.00009760000000000,-0.00008560000000000,-0.00007390000000000,-0.00000002770000000,0.00000002770000000,0.00007490000000000,0.00013100000000000,-0.00000993000000000,-0.00016200000000000,0.15000000000000000,0.00060100000000000,-0.15300000000000000,0.00009670000000000,0.00075900000000000,0.49400000000000000,0.59700000000000000
193000.00000000000000000,-0.00009760000000000,-0.00008560000000000,-0.00007390000000000,-0.00000002700000000,0.00000001010000000,0.00007490000000000,0.00013100000000000,-0.00000993000000000,-0.00016200000000000,0.15100000000000000,0.00060100000000000,-0.15300000000000000,0.00009130000000000,0.00075700000000000,0.49400000000000000,0.59700000000000000
193000.00000000000000000,-0.00009760000000000,-0.00008560000000000,-0.00007390000000000,-0.00000002660000000,0.00000000020800000,0.00007490000000000,0.00013100000000000,-0.00000991000000000,-0.00016200000000000,0.15100000000000000,0.00060100000000000,-0.15400000000000000,0.00008750000000000,0.00075400000000000,0.49400000000000000,0.59700000000000000
193000.00000000000000000,-0.00009760000000000,-0.00008560000000000,-0.00007390000000000,-0.00000002730000000,0.00000001430000000,0.00007490000000000,0.00013100000000000,-0.00000994000000000,-0.00016200000000000,0.15100000000000000,0.00060200000000000,-0.15400000000000000,0.00009180000000000,0.00075600000000000,0.49500000000000000,0.59800000000000000
193000.00000000000000000,-0.00009800000000000,-0.00008600000000000,-0.00007430000000000,-0.00000002870000000,-0.00000000367000000,0.00007490000000000,0.00013100000000000,-0.00001030000000000,-0.00016200000000000,0.15100000000000000,0.00060400000000000,-0.15400000000000000,0.00009070000000000,0.00075600000000000,0.49500000000000000,0.59800000000000000
193000.00000000000000000,-0.00009810000000000,-0.00008610000000000,-0.00007440000000000,-0.00000002810000000,0.00000006290000000,0.00007490000000000,0.00013100000000000,-0.00001040000000000,-0.00016200000000000,0.15100000000000000,0.00060600000000000,-0.15400000000000000,0.00011700000000000,0.00079300000000000,0.49500000000000000,0.59800000000000000
194000.00000000000000000,-0.00009800000000000,-0.00008600000000000,-0.00007430000000000,-0.00000002470000000,0.00000001160000000,0.00007500000000000,0.00013100000000000,-0.00001020000000000,-0.00016200000000000,0.15200000000000000,0.00060400000000000,-0.15400000000000000,0.00011300000000000,0.00076200000000000,0.49500000000000000,0.59900000000000000
194000.00000000000000000,-0.00009810000000000,-0.00008600000000000,-0.00007430000000000,-0.00000003030000000,0.00000006850000000,0.00007500000000000,0.00013100000000000,-0.00001030000000000,-0.00016200000000000,0.15200000000000000,0.00060500000000000,-0.15400000000000000,0.00012000000000000,0.00078200000000000,0.49600000000000000,0.59900000000000000
194000.00000000000000000,-0.00009790000000000,-0.00008590000000000,-0.00007410000000000,-0.00000003030000000,0.00000005670000000,0.00007500000000000,0.00013200000000000,-0.00001010000000000,-0.00016200000000000,0.15200000000000000,0.00060300000000000,-0.15500000000000000,0.00010800000000000,0.00077500000000000,0.49600000000000000,0.59900000000000000
194000.00000000000000000,-0.00009800000000000,-0.00008590000000000,-0.00007420000000000,-0.00000002800000000,0.00000001960000000,0.00007500000000000,0.00013200000000000,-0.00001010000000000,-0.00016200000000000,0.15200000000000000,0.00060400000000000,-0.15500000000000000,0.00009510000000000,0.00075600000000000,0.49600000000000000,0.60000000000000000
194000.00000000000000000,-0.00009810000000000,-0.00008600000000000,-0.00007420000000000,-0.00000002640000000,0.00000000768000000,0.00007500000000000,0.00013200000000000,-0.00001020000000000,-0.00016200000000000,0.15200000000000000,0.00060400000000000,-0.15500000000000000,0.00009760000000000,0.00075500000000000,0.49600000000000000,0.60000000000000000
194000.00000000000000000,-0.00009830000000000,-0.00008620000000000,-0.00007450000000000,-0.00000002590000000,0.00000001960000000,0.00007500000000000,0.00013200000000000,-0.00001040000000000,-0.00016200000000000,0.15200000000000000,0.00060600000000000,-0.15500000000000000,0.00011100000000000,0.00076300000000000,0.49700000000000000,0.60000000000000000
194000.00000000000000000,-0.00009840000000000,-0.00008630000000000,-0.00007450000000000,-0.00000002430000000,0.00000000737000000,0.00007510000000000,0.00013200000000000,-0.00001050000000000,-0.00016200000000000,0.15300000000000000,0.00060700000000000,-0.15500000000000000,0.00011100000000000,0.00076000000000000,0.49700000000000000,0.60100000000000000
194000.00000000000000000,-0.00009830000000000,-0.00008620000000000,-0.00007440000000000,-0.00000003020000000,0.00000006150000000,0.00007510000000000,0.00013200000000000,-0.00001040000000000,-0.00016200000000000,0.15300000000000000,0.00060600000000000,-0.15600000000000000,0.00011600000000000,0.00078500000000000,0.49700000000000000,0.60100000000000000
194000.00000000000000000,-0.00009830000000000,-0.00008610000000000,-0.00007430000000000,-0.00000002830000000,0.00000002910000000,0.00007510000000000,0.00013200000000000,-0.00001030000000000,-0.00016200000000000,0.15300000000000000,0.00060500000000000,-0.15600000000000000,0.00010400000000000,0.00076800000000000,0.49700000000000000,0.60100000000000000
194000.00000000000000000,-0.00009830000000000,-0.00008620000000000,-0.00007430000000000,-0.00000002950000000,0.00000005740000000,0.00007510000000000,0.00013200000000000,-0.00001030000000000,-0.00016200000000000,0.15300000000000000,0.00060600000000000,-0.15600000000000000,0.00011200000000000,0.00077800000000000,0.49800000000000000,0.60200000000000000
195000.00000000000000000,-0.00009850000000000,-0.00008630000000000,-0.00007450000000000,-0.00000002870000000,0.00000006280000000,0.00007510000000000,0.00013200000000000,-0.00001040000000000,-0.00016300000000000,0.15300000000000000,0.00060700000000000,-0.15600000000000000,0.00012000000000000,0.00077700000000000,0.49800000000000000,0.60200000000000000
195000.00000000000000000,-0.00009850000000000,-0.00008640000000000,-0.00007450000000000,-0.00000002660000000,0.00000003260000000,0.00007510000000000,0.00013200000000000,-0.00001050000000000,-0.00016300000000000,0.15400000000000000,0.00060700000000000,-0.15600000000000000,0.00011400000000000,0.00076400000000000,0.49800000000000000,0.60200000000000000
195000.00000000000000000,-0.00009850000000000,-0.00008630000000000,-0.00007450000000000,-0.00000002690000000,0.00000002560000000,0.00007510000000000,0.00013200000000000,-0.00001040000000000,-0.00016300000000000,0.15400000000000000,0.00060700000000000,-0.15600000000000000,0.00010700000000000,0.00076800000000000,0.49800000000000000,0.60300000000000000
195000.00000000000000000,-0.00009860000000000,-0.00008640000000000,-0.00007450000000000,-0.00000002820000000,0.00000003120000000,0.00007510000000000,0.00013200000000000,-0.00001040000000000,-0.00016300000000000,0.15400000000000000,0.00060700000000000,-0.15700000000000000,0.00010500000000000,0.00077500000000000,0.49900000000000000,0.60300000000000000
195000.00000000000000000,-0.00009860000000000,-0.00008640000000000,-0.00007450000000000,-0.00000002590000000,-0.00000000046500000,0.00007520000000000,0.00013200000000000,-0.00001040000000000,-0.00016300000000000,0.15400000000000000,0.00060700000000000,-0.15700000000000000,0.00010100000000000,0.00075800000000000,0.49900000000000000,0.60300000000000000
195000.00000000000000000,-0.00009870000000000,-0.00008650000000000,-0.00007460000000000,-0.00000002860000000,0.00000005620000000,0.00007520000000000,0.00013200000000000,-0.00001050000000000,-0.00016300000000000,0.15400000000000000,0.00060800000000000,-0.15700000000000000,0.00012000000000000,0.00078300000000000,0.49900000000000000,0.60400000000000000
195000.00000000000000000,-0.00009870000000000,-0.00008650000000000,-0.00007460000000000,-0.00000002750000000,0.00000003930000000,0.00007520000000000,0.00013200000000000,-0.00001050000000000,-0.00016300000000000,0.15400000000000000,0.00060800000000000,-0.15700000000000000,0.00011500000000000,0.00077100000000000,0.49900000000000000,0.60400000000000000
195000.00000000000000000,-0.00009870000000000,-0.00008640000000000,-0.00007450000000000,-0.00000002650000000,0.00000001380000000,0.00007520000000000,0.00013200000000000,-0.00001040000000000,-0.00016300000000000,0.15500000000000000,0.00060700000000000,-0.15700000000000000,0.00010200000000000,0.00075800000000000,0.50000000000000000,0.60400000000000000
195000.00000000000000000,-0.00009870000000000,-0.00008640000000000,-0.00007450000000000,-0.00000002940000000,0.00000005020000000,0.00007520000000000,0.00013200000000000,-0.00001040000000000,-0.00016300000000000,0.15500000000000000,0.00060700000000000,-0.15800000000000000,0.00010800000000000,0.00077700000000000,0.50000000000000000,0.60500000000000000
195000.00000000000000000,-0.00009880000000000,-0.00008650000000000,-0.00007460000000000,-0.00000002840000000,0.00000003670000000,0.00007520000000000,0.00013200000000000,-0.00001050000000000,-0.00016300000000000,0.15500000000000000,0.00060800000000000,-0.15800000000000000,0.00010800000000000,0.00076900000000000,0.50000000000000000,0.60500000000000000
196000.00000000000000000,-0.00009890000000000,-0.00008670000000000,-0.00007470000000000,-0.00000002650000000,0.00000002300000000,0.00007520000000000,0.00013200000000000,-0.00001060000000000,-0.00016300000000000,0.15500000000000000,0.00060900000000000,-0.15800000000000000,0.00011200000000000,0.00076400000000000,0.50000000000000000,0.60500000000000000
196000.00000000000000000,-0.00009900000000000,-0.00008670000000000,-0.00007470000000000,-0.00000002820000000,0.00000004340000000,0.00007530000000000,0.00013200000000000,-0.00001060000000000,-0.00016300000000000,0.15500000000000000,0.00060900000000000,-0.15800000000000000,0.00011600000000000,0.00077800000000000,0.50100000000000000,0.60600000000000000
196000.00000000000000000,-0.00009900000000000,-0.00008670000000000,-0.00007470000000000,-0.00000002620000000,0.00000000778000000,0.00007530000000000,0.00013200000000000,-0.00001060000000000,-0.00016300000000000,0.15600000000000000,0.00060900000000000,-0.15800000000000000,0.00010500000000000,0.00076400000000000,0.50100000000000000,0.60600000000000000
196000.00000000000000000,-0.00009900000000000,-0.00008670000000000,-0.00007470000000000,-0.00000002690000000,0.00000001920000000,0.00007530000000000,0.00013200000000000,-0.00001060000000000,-0.00016300000000000,0.15600000000000000,0.00060900000000000,-0.15900000000000000,0.00010800000000000,0.00076900000000000,0.50100000000000000,0.60600000000000000
196000.00000000000000000,-0.00009910000000000,-0.00008680000000000,-0.00007480000000000,-0.00000002990000000,0.00000007490000000,0.00007530000000000,0.00013200000000000,-0.00001070000000000,-0.00016300000000000,0.15600000000000000,0.00061000000000000,-0.15900000000000000,0.00012400000000000,0.00079200000000000,0.50100000000000000,0.60700000000000000
196000.00000000000000000,-0.00009910000000000,-0.00008680000000000,-0.00007480000000000,-0.00000002770000000,0.00000004990000000,0.00007530000000000,0.00013200000000000,-0.00001070000000000,-0.00016300000000000,0.15600000000000000,0.00061000000000000,-0.15900000000000000,0.00012100000000000,0.00077400000000000,0.50100000000000000,0.60700000000000000
196000.00000000000000000,-0.00009910000000000,-0.00008680000000000,-0.00007480000000000,-0.00000002690000000,0.00000003140000000,0.00007530000000000,0.00013200000000000,-0.00001060000000000,-0.00016300000000000,0.15600000000000000,0.00061000000000000,-0.15900000000000000,0.00011200000000000,0.00076500000000000,0.50200000000000000,0.60700000000000000
196000.00000000000000000,-0.00009910000000000,-0.00008670000000000,-0.00007470000000000,-0.00000002750000000,0.00000002550000000,0.00007530000000000,0.00013200000000000,-0.00001060000000000,-0.00016300000000000,0.15700000000000000,0.00060900000000000,-0.15900000000000000,0.00010400000000000,0.00076600000000000,0.50200000000000000,0.60800000000000000
196000.00000000000000000,-0.00009920000000000,-0.00008680000000000,-0.00007470000000000,-0.00000002690000000,0.00000001190000000,0.00007540000000000,0.00013200000000000,-0.00001060000000000,-0.00016300000000000,0.15700000000000000,0.00061000000000000,-0.15900000000000000,0.00010300000000000,0.00076100000000000,0.50200000000000000,0.60800000000000000
196000.00000000000000000,-0.00009930000000000,-0.00008700000000000,-0.00007490000000000,-0.00000002790000000,0.00000004290000000,0.00007540000000000,0.00013200000000000,-0.00001080000000000,-0.00016300000000000,0.15700000000000000,0.00061100000000000,-0.16000000000000000,0.00011800000000000,0.00077900000000000,0.50200000000000000,0.60800000000000000
197000.00000000000000000,-0.00009950000000000,-0.00008700000000000,-0.00007500000000000,-0.00000002860000000,0.00000006210000000,0.00007540000000000,0.00013200000000000,-0.00001080000000000,-0.00016400000000000,0.15700000000000000,0.00061200000000000,-0.16000000000000000,0.00012700000000000,0.00079100000000000,0.50300000000000000,0.60900000000000000
197000.00000000000000000,-0.00009940000000000,-0.00008700000000000,-0.00007490000000000,-0.00000002590000000,0.00000001930000000,0.00007540000000000,0.00013200000000000,-0.00001080000000000,-0.00016400000000000,0.15700000000000000,0.00061200000000000,-0.16000000000000000,0.00011500000000000,0.00077100000000000,0.50300000000000000,0.60900000000000000
197000.00000000000000000,-0.00009940000000000,-0.00008700000000000,-0.00007490000000000,-0.00000002700000000,0.00000002120000000,0.00007540000000000,0.00013200000000000,-0.00001070000000000,-0.00016400000000000,0.15700000000000000,0.00061100000000000,-0.16000000000000000,0.00010800000000000,0.00077100000000000,0.50300000000000000,0.60900000000000000
197000.00000000000000000,-0.00009940000000000,-0.00008700000000000,-0.00007490000000000,-0.00000002750000000,0.00000002810000000,0.00007540000000000,0.00013200000000000,-0.00001070000000000,-0.00016400000000000,0.15800000000000000,0.00061100000000000,-0.16000000000000000,0.00010900000000000,0.00077000000000000,0.50300000000000000,0.61000000000000000
197000.00000000000000000,-0.00009950000000000,-0.00008700000000000,-0.00007490000000000,-0.00000002800000000,0.00000003370000000,0.00007540000000000,0.00013200000000000,-0.00001080000000000,-0.00016400000000000,0.15800000000000000,0.00061100000000000,-0.16100000000000000,0.00011100000000000,0.00076700000000000,0.50400000000000000,0.61000000000000000
197000.00000000000000000,-0.00009950000000000,-0.00008710000000000,-0.00007490000000000,-0.00000002870000000,0.00000004720000000,0.00007550000000000,0.00013200000000000,-0.00001080000000000,-0.00016400000000000,0.15800000000000000,0.00061200000000000,-0.16100000000000000,0.00011400000000000,0.00077300000000000,0.50400000000000000,0.61000000000000000
197000.00000000000000000,-0.00009950000000000,-0.00008710000000000,-0.00007490000000000,-0.00000002710000000,0.00000002380000000,0.00007550000000000,0.00013200000000000,-0.00001080000000000,-0.00016400000000000,0.15800000000000000,0.00061200000000000,-0.16100000000000000,0.00010800000000000,0.00076500000000000,0.50400000000000000,0.61100000000000000
197000.00000000000000000,-0.00009960000000000,-0.00008710000000000,-0.00007490000000000,-0.00000002650000000,0.00000001480000000,0.00007550000000000,0.00013200000000000,-0.00001080000000000,-0.00016400000000000,0.15800000000000000,0.00061200000000000,-0.16100000000000000,0.00010600000000000,0.00076500000000000,0.50400000000000000,0.61100000000000000
197000.00000000000000000,-0.00009970000000000,-0.00008720000000000,-0.00007510000000000,-0.00000002810000000,0.00000004870000000,0.00007550000000000,0.00013200000000000,-0.00001090000000000,-0.00016400000000000,0.15900000000000000,0.00061300000000000,-0.16100000000000000,0.00012100000000000,0.00078300000000000,0.50500000000000000,0.61100000000000000
197000.00000000000000000,-0.00009980000000000,-0.00008730000000000,-0.00007520000000000,-0.00000002730000000,0.00000004230000000,0.00007550000000000,0.00013300000000000,-0.00001100000000000,-0.00016400000000000,0.15900000000000000,0.00061400000000000,-0.16200000000000000,0.00012300000000000,0.00078000000000000,0.50500000000000000,0.61200000000000000
198000.00000000000000000,-0.00009980000000000,-0.00008730000000000,-0.00007510000000000,-0.00000002730000000,0.00000003550000000,0.00007550000000000,0.00013300000000000,-0.00001100000000000,-0.00016400000000000,0.15900000000000000,0.00061400000000000,-0.16200000000000000,0.00011900000000000,0.00077800000000000,0.50500000000000000,0.61200000000000000
198000.00000000000000000,-0.00009980000000000,-0.00008730000000000,-0.00007510000000000,-0.00000002720000000,0.00000002420000000,0.00007550000000000,0.00013300000000000,-0.00001090000000000,-0.00016400000000000,0.15900000000000000,0.00061300000000000,-0.16200000000000000,0.00011200000000000,0.00077400000000000,0.50500000000000000,0.61200000000000000
198000.00000000000000000,-0.00009980000000000,-0.00008730000000000,-0.00007510000000000,-0.00000002680000000,0.00000001910000000,0.00007560000000000,0.00013300000000000,-0.00001090000000000,-0.00016400000000000,0.15900000000000000,0.00061300000000000,-0.16200000000000000,0.00010900000000000,0.00076900000000000,0.50600000000000000,0.61300000000000000
198000.00000000000000000,-0.00009990000000000,-0.00008740000000000,-0.00007520000000000,-0.00000002790000000,0.00000004900000000,0.00007560000000000,0.00013300000000000,-0.00001100000000000,-0.00016400000000000,0.15900000000000000,0.00061400000000000,-0.16200000000000000,0.00012100000000000,0.00078000000000000,0.50600000000000000,0.61300000000000000
198000.00000000000000000,-0.00010000000000000,-0.00008740000000000,-0.00007520000000000,-0.00000002840000000,0.00000005450000000,0.00007560000000000,0.00013300000000000,-0.00001100000000000,-0.00016400000000000,0.16000000000000000,0.00061400000000000,-0.16200000000000000,0.00012300000000000,0.00077900000000000,0.50600000000000000,0.61300000000000000
198000.00000000000000000,-0.00010000000000000,-0.00008740000000000,-0.00007510000000000,-0.00000002750000000,0.00000003570000000,0.00007560000000000,0.00013300000000000,-0.00001100000000000,-0.00016400000000000,0.16000000000000000,0.00061400000000000,-0.16300000000000000,0.00011400000000000,0.00077100000000000,0.50600000000000000,0.61400000000000000
198000.00000000000000000,-0.00010000000000000,-0.00008740000000000,-0.00007510000000000,-0.00000002700000000,0.00000001730000000,0.00007560000000000,0.00013300000000000,-0.00001090000000000,-0.00016400000000000,0.16000000000000000,0.00061400000000000,-0.16300000000000000,0.00010600000000000,0.00076400000000000,0.50700000000000000,0.61400000000000000
198000.00000000000000000,-0.00010000000000000,-0.00008750000000000,-0.00007520000000000,-0.00000002520000000,0.00000001700000000,0.00007560000000000,0.00013300000000000,-0.00001110000000000,-0.00016400000000000,0.16000000000000000,0.00061400000000000,-0.16300000000000000,0.00010600000000000,0.00076200000000000,0.50700000000000000,0.61400000000000000
198000.00000000000000000,-0.00009990000000000,-0.00008730000000000,-0.00007500000000000,-0.00000002580000000,0.00000001310000000,0.00007560000000000,0.00013300000000000,-0.00001090000000000,-0.00016400000000000,0.16000000000000000,0.00061300000000000,-0.16300000000000000,0.00010300000000000,0.00076200000000000,0.50700000000000000,0.61500000000000000
198000.00000000000000000,-0.00010000000000000,-0.00008740000000000,-0.00007510000000000,-0.00000002350000000,-0.00000002650000000,0.00007560000000000,0.00013300000000000,-0.00001090000000000,-0.00016400000000000,0.16100000000000000,0.00061400000000000,-0.16300000000000000,0.00009170000000000,0.00073900000000000,0.50700000000000000,0.61500000000000000
199000.00000000000000000,-0.00010000000000000,-0.00008730000000000,-0.00007500000000000,-0.00000003110000000,0.00000005910000000,0.00007570000000000,0.00013300000000000,-0.00001080000000000,-0.00016400000000000,0.16100000000000000,0.00061300000000000,-0.16300000000000000,0.00010500000000000,0.00077400000000000,0.50800000000000000,0.61500000000000000
199000.00000000000000000,-0.00010000000000000,-0.00008740000000000,-0.00007510000000000,-0.00000002920000000,0.00000004560000000,0.00007570000000000,0.00013300000000000,-0.00001090000000000,-0.00016400000000000,0.16100000000000000,0.00061400000000000,-0.16400000000000000,0.00010300000000000,0.00076400000000000,0.50800000000000000,0.61600000000000000
199000.00000000000000000,-0.00009990000000000,-0.00008730000000000,-0.00007490000000000,-0.00000002250000000,-0.00000006050000000,0.00007570000000000,0.00013300000000000,-0.00001070000000000,-0.00016400000000000,0.16100000000000000,0.00061200000000000,-0.16400000000000000,0.00007530000000000,0.00071300000000000,0.50800000000000000,0.61600000000000000
199000.00000000000000000,-0.00010000000000000,-0.00008730000000000,-0.00007500000000000,-0.00000002730000000,0.00000000637000000,0.00007570000000000,0.00013300000000000,-0.00001080000000000,-0.00016400000000000,0.16100000000000000,0.00061300000000000,-0.16400000000000000,0.00009020000000000,0.00075200000000000,0.50800000000000000,0.61600000000000000
199000.00000000000000000,-0.00010000000000000,-0.00008740000000000,-0.00007500000000000,-0.00000002990000000,0.00000004220000000,0.00007570000000000,0.00013300000000000,-0.00001080000000000,-0.00016400000000000,0.16100000000000000,0.00061300000000000,-0.16400000000000000,0.00010200000000000,0.00077400000000000,0.50900000000000000,0.61700000000000000
199000.00000000000000000,-0.00010000000000000,-0.00008760000000000,-0.00007530000000000,-0.00000002480000000,0.00000000244000000,0.00007570000000000,0.00013300000000000,-0.00001100000000000,-0.00016500000000000,0.16200000000000000,0.00061500000000000,-0.16400000000000000,0.00010400000000000,0.00076000000000000,0.50900000000000000,0.61700000000000000
199000.00000000000000000,-0.00010000000000000,-0.00008770000000000,-0.00007530000000000,-0.00000002820000000,0.00000004510000000,0.00007570000000000,0.00013300000000000,-0.00001100000000000,-0.00016500000000000,0.16200000000000000,0.00061500000000000,-0.16500000000000000,0.00011600000000000,0.00078200000000000,0.50900000000000000,0.61700000000000000
199000.00000000000000000,-0.00010000000000000,-0.00008770000000000,-0.00007530000000000,-0.00000002470000000,-0.00000000624000000,0.00007580000000000,0.00013300000000000,-0.00001110000000000,-0.00016500000000000,0.16200000000000000,0.00061600000000000,-0.16500000000000000,0.00010100000000000,0.00075800000000000,0.50900000000000000,0.61800000000000000
199000.00000000000000000,-0.00010000000000000,-0.00008770000000000,-0.00007530000000000,-0.00000002370000000,-0.00000002950000000,0.00007580000000000,0.00013300000000000,-0.00001100000000000,-0.00016500000000000,0.16200000000000000,0.00061500000000000,-0.16500000000000000,0.00009120000000000,0.00074600000000000,0.51000000000000000,0.61800000000000000
199000.00000000000000000,-0.00010000000000000,-0.00008770000000000,-0.00007520000000000,-0.00000003060000000,0.00000005300000000,0.00007580000000000,0.00013300000000000,-0.00001100000000000,-0.00016500000000000,0.16200000000000000,0.00061500000000000,-0.16500000000000000,0.00010900000000000,0.00077900000000000,0.51000000000000000,0.61800000000000000
200000.00000000000000000,-0.00010000000000000,-0.00008770000000000,-0.00007520000000000,-0.00000002790000000,0.00000003120000000,0.00007580000000000,0.00013300000000000,-0.00001100000000000,-0.00016500000000000,0.16300000000000000,0.00061500000000000,-0.16500000000000000,0.00010700000000000,0.00076400000000000,0.51000000000000000,0.61900000000000000
200000.00000000000000000,-0.00010100000000000,-0.00008770000000000,-0.00007530000000000,-0.00000002550000000,0.00000000971000000,0.00007580000000000,0.00013300000000000,-0.00001100000000000,-0.00016500000000000,0.16300000000000000,0.00061600000000000,-0.16600000000000000,0.00010200000000000,0.00075100000000000,0.51000000000000000,0.61900000000000000
200000.00000000000000000,-0.00010000000000000,-0.00008770000000000,-0.00007520000000000,-0.00000002890000000,0.00000003480000000,0.00007580000000000,0.00013300000000000,-0.00001100000000000,-0.00016500000000000,0.16300000000000000,0.00061500000000000,-0.16600000000000000,0.00010100000000000,0.00076200000000000,0.51000000000000000,0.61900000000000000
200000.00000000000000000,-0.00010000000000000,-0.00008770000000000,-0.00007520000000000,-0.00000002820000000,0.00000002070000000,0.00007580000000000,0.00013300000000000,-0.00001100000000000,-0.00016500000000000,0.16300000000000000,0.00061500000000000,-0.16600000000000000,0.00009490000000000,0.00075600000000000,0.51100000000000000,0.62000000000000000
200000.00000000000000000,-0.00010100000000000,-0.00008780000000000,-0.00007530000000000,-0.00000002430000000,-0.00000001170000000,0.00007590000000000,0.00013300000000000,-0.00001110000000000,-0.00016500000000000,0.16300000000000000,0.00061600000000000,-0.16600000000000000,0.00009420000000000,0.00074200000000000,0.51100000000000000,0.62000000000000000
200000.00000000000000000,-0.00010100000000000,-0.00008790000000000,-0.00007540000000000,-0.00000002880000000,0.00000003830000000,0.00007590000000000,0.00013300000000000,-0.00001110000000000,-0.00016500000000000,0.16400000000000000,0.00061700000000000,-0.16600000000000000,0.00010700000000000,0.00076700000000000,0.51100000000000000,0.62000000000000000
200000.00000000000000000,-0.00010100000000000,-0.00008790000000000,-0.00007540000000000,-0.00000002880000000,0.00000003330000000,0.00007590000000000,0.00013300000000000,-0.00001110000000000,-0.00016500000000000,0.16400000000000000,0.00061700000000000,-0.16700000000000000,0.00010700000000000,0.00076800000000000,0.51100000000000000,0.62100000000000000
200000.00000000000000000,-0.00010100000000000,-0.00008800000000000,-0.00007550000000000,-0.00000002560000000,-0.00000000988000000,0.00007590000000000,0.00013300000000000,-0.00001120000000000,-0.00016500000000000,0.16400000000000000,0.00061700000000000,-0.16700000000000000,0.00009660000000000,0.00075500000000000,0.51200000000000000,0.62100000000000000
200000.00000000000000000,-0.00010100000000000,-0.00008800000000000,-0.00007540000000000,-0.00000002640000000,-0.00000000523000000,0.00007590000000000,0.00013300000000000,-0.00001120000000000,-0.00016500000000000,0.16400000000000000,0.00061700000000000,-0.16700000000000000,0.00009620000000000,0.00075800000000000,0.51200000000000000,0.62100000000000000
200000.00000000000000000,-0.00010100000000000,-0.00008800000000000,-0.00007550000000000,-0.00000002780000000,0.00000002000000000,0.00007590000000000,0.00013300000000000,-0.00001120000000000,-0.00016500000000000,0.16400000000000000,0.00061800000000000,-0.16700000000000000,0.00010600000000000,0.00076900000000000,0.51200000000000000,0.62200000000000000
201000.00000000000000000,-0.00010100000000000,-0.00008810000000000,-0.00007560000000000,-0.00000002530000000,-0.00000000639000000,0.00007590000000000,0.00013300000000000,-0.00001130000000000,-0.00016500000000000,0.16500000000000000,0.00061800000000000,-0.16700000000000000,0.00010200000000000,0.00075600000000000,0.51200000000000000,0.62200000000000000
201000.00000000000000000,-0.00010100000000000,-0.00008810000000000,-0.00007550000000000,-0.00000002860000000,0.00000003150000000,0.00007600000000000,0.00013300000000000,-0.00001120000000000,-0.00016500000000000,0.16500000000000000,0.00061800000000000,-0.16700000000000000,0.00010800000000000,0.00077400000000000,0.51300000000000000,0.62200000000000000
201000.00000000000000000,-0.00010100000000000,-0.00008810000000000,-0.00007550000000000,-0.00000002730000000,0.00000001610000000,0.00007600000000000,0.00013300000000000,-0.00001120000000000,-0.00016500000000000,0.16500000000000000,0.00061800000000000,-0.16800000000000000,0.00010300000000000,0.00076600000000000,0.51300000000000000,0.62300000000000000
201000.00000000000000000,-0.00010100000000000,-0.00008810000000000,-0.00007550000000000,-0.00000002630000000,0.00000000724000000,0.00007600000000000,0.00013300000000000,-0.00001120000000000,-0.00016500000000000,0.16500000000000000,0.00061800000000000,-0.16800000000000000,0.00010100000000000,0.00075800000000000,0.51300000000000000,0.62300000000000000
201000.00000000000000000,-0.00010100000000000,-0.00008820000000000,-0.00007560000000000,-0.00000002840000000,0.00000003860000000,0.00007600000000000,0.00013300000000000,-0.00001130000000000,-0.00016500000000000,0.16500000000000000,0.00061900000000000,-0.16800000000000000,0.00011000000000000,0.00076800000000000,0.51300000000000000,0.62300000000000000
201000.00000000000000000,-0.00010100000000000,-0.00008820000000000,-0.00007550000000000,-0.00000002850000000,0.00000003030000000,0.00007600000000000,0.00013300000000000,-0.00001120000000000,-0.00016500000000000,0.16500000000000000,0.00061800000000000,-0.16800000000000000,0.00010400000000000,0.00076000000000000,0.51400000000000000,0.62400000000000000
201000.00000000000000000,-0.00010100000000000,-0.00008810000000000,-0.00007550000000000,-0.00000002670000000,0.00000000671000000,0.00007600000000000,0.00013400000000000,-0.00001120000000000,-0.00016500000000000,0.16600000000000000,0.00061800000000000,-0.16800000000000000,0.00009600000000000,0.00075000000000000,0.51400000000000000,0.62400000000000000
201000.00000000000000000,-0.00010100000000000,-0.00008820000000000,-0.00007550000000000,-0.00000002650000000,0.00000000775000000,0.00007600000000000,0.00013400000000000,-0.00001120000000000,-0.00016500000000000,0.16600000000000000,0.00061900000000000,-0.16900000000000000,0.00009830000000000,0.00075300000000000,0.51400000000000000,0.62400000000000000
201000.00000000000000000,-0.00010100000000000,-0.00008830000000000,-0.00007560000000000,-0.00000002970000000,0.00000004970000000,0.00007600000000000,0.00013400000000000,-0.00001130000000000,-0.00016600000000000,0.16600000000000000,0.00061900000000000,-0.16900000000000000,0.00011000000000000,0.00077300000000000,0.51400000000000000,0.62500000000000000
201000.00000000000000000,-0.00010100000000000,-0.00008840000000000,-0.00007570000000000,-0.00000002690000000,0.00000002400000000,0.00007610000000000,0.00013400000000000,-0.00001140000000000,-0.00016600000000000,0.16600000000000000,0.00062000000000000,-0.16900000000000000,0.00010900000000000,0.00076300000000000,0.51500000000000000,0.62500000000000000
202000.00000000000000000,-0.00010100000000000,-0.00008840000000000,-0.00007570000000000,-0.00000002560000000,-0.00000000073800000,0.00007610000000000,0.00013400000000000,-0.00001140000000000,-0.00016600000000000,0.16600000000000000,0.00062000000000000,-0.16900000000000000,0.00010100000000000,0.00075500000000000,0.51500000000000000,0.62500000000000000
202000.00000000000000000,-0.00010100000000000,-0.00008840000000000,-0.00007570000000000,-0.00000002790000000,0.00000001290000000,0.00007610000000000,0.00013400000000000,-0.00001130000000000,-0.00016600000000000,0.16700000000000000,0.00062000000000000,-0.16900000000000000,0.00009910000000000,0.00076400000000000,0.51500000000000000,0.62600000000000000
202000.00000000000000000,-0.00010100000000000,-0.00008840000000000,-0.00007570000000000,-0.00000002620000000,-0.00000000368000000,0.00007610000000000,0.00013400000000000,-0.00001140000000000,-0.00016600000000000,0.16700000000000000,0.00062000000000000,-0.17000000000000000,0.00009920000000000,0.00075800000000000,0.51500000000000000,0.62600000000000000
202000.00000000000000000,-0.00010200000000000,-0.00008850000000000,-0.00007580000000000,-0.00000002690000000,0.00000001190000000,0.00007610000000000,0.00013400000000000,-0.00001150000000000,-0.00016600000000000,0.16700000000000000,0.00062100000000000,-0.17000000000000000,0.00010600000000000,0.00076500000000000,0.51600000000000000,0.62600000000000000
202000.00000000000000000,-0.00010200000000000,-0.00008850000000000,-0.00007580000000000,-0.00000002880000000,0.00000003260000000,0.00007610000000000,0.00013400000000000,-0.00001150000000000,-0.00016600000000000,0.16700000000000000,0.00062100000000000,-0.17000000000000000,0.00011100000000000,0.00077400000000000,0.51600000000000000,0.62700000000000000
202000.00000000000000000,-0.00010200000000000,-0.00008850000000000,-0.00007580000000000,-0.00000002590000000,-0.00000000701000000,0.00007610000000000,0.00013400000000000,-0.00001150000000000,-0.00016600000000000,0.16700000000000000,0.00062100000000000,-0.17000000000000000,0.00009870000000000,0.00075600000000000,0.51600000000000000,0.62700000000000000
202000.00000000000000000,-0.00010200000000000,-0.00008850000000000,-0.00007580000000000,-0.00000002600000000,-0.00000000783000000,0.00007620000000000,0.00013400000000000,-0.00001140000000000,-0.00016600000000000,0.16800000000000000,0.00062100000000000,-0.17000000000000000,0.00009540000000000,0.00075500000000000,0.51600000000000000,0.62700000000000000
202000.00000000000000000,-0.00010200000000000,-0.00008860000000000,-0.00007580000000000,-0.00000002780000000,0.00000002030000000,0.00007620000000000,0.00013400000000000,-0.00001150000000000,-0.00016600000000000,0.16800000000000000,0.00062100000000000,-0.17100000000000000,0.00010500000000000,0.00076500000000000,0.51700000000000000,0.62800000000000000
202000.00000000000000000,-0.00010200000000000,-0.00008870000000000,-0.00007590000000000,-0.00000002760000000,0.00000002680000000,0.00007620000000000,0.00013400000000000,-0.00001150000000000,-0.00016600000000000,0.16800000000000000,0.00062200000000000,-0.17100000000000000,0.00010900000000000,0.00076400000000000,0.51700000000000000,0.62800000000000000
202000.00000000000000000,-0.00010200000000000,-0.00008870000000000,-0.00007590000000000,-0.00000002720000000,0.00000002110000000,0.00007620000000000,0.00013400000000000,-0.00001150000000000,-0.00016600000000000,0.16800000000000000,0.00062200000000000,-0.17100000000000000,0.00010700000000000,0.00076000000000000,0.51700000000000000,0.62800000000000000
203000.00000000000000000,-0.00010200000000000,-0.00008860000000000,-0.00007580000000000,-0.00000002850000000,0.00000002670000000,0.00007620000000000,0.00013400000000000,-0.00001150000000000,-0.00016600000000000,0.16800000000000000,0.00062100000000000,-0.17100000000000000,0.00010300000000000,0.00076200000000000,0.51700000000000000,0.62900000000000000
203000.00000000000000000,-0.00010200000000000,-0.00008860000000000,-0.00007580000000000,-0.00000002750000000,0.00000001020000000,0.00007620000000000,0.00013400000000000,-0.00001140000000000,-0.00016600000000000,0.16800000000000000,0.00062100000000000,-0.17100000000000000,0.00009660000000000,0.00075300000000000,0.51700000000000000,0.62900000000000000
203000.00000000000000000,-0.00010200000000000,-0.00008870000000000,-0.00007590000000000,-0.00000002660000000,0.00000001150000000,0.00007620000000000,0.00013400000000000,-0.00001150000000000,-0.00016600000000000,0.16900000000000000,0.00062200000000000,-0.17100000000000000,0.00010200000000000,0.00075300000000000,0.51800000000000000,0.62900000000000000
203000.00000000000000000,-0.00010200000000000,-0.00008880000000000,-0.00007590000000000,-0.00000002880000000,0.00000003920000000,0.00007630000000000,0.00013400000000000,-0.00001160000000000,-0.00016600000000000,0.16900000000000000,0.00062300000000000,-0.17200000000000000,0.00011000000000000,0.00076800000000000,0.51800000000000000,0.63000000000000000
203000.00000000000000000,-0.00010200000000000,-0.00008880000000000,-0.00007590000000000,-0.00000002730000000,0.00000000517000000,0.00007630000000000,0.00013400000000000,-0.00001160000000000,-0.00016600000000000,0.16900000000000000,0.00062300000000000,-0.17200000000000000,0.00009950000000000,0.00075500000000000,0.51800000000000000,0.63000000000000000
203000.00000000000000000,-0.00010200000000000,-0.00008890000000000,-0.00007600000000000,-0.00000002630000000,0.00000000763000000,0.00007630000000000,0.00013400000000000,-0.00001160000000000,-0.00016600000000000,0.16900000000000000,0.00062300000000000,-0.17200000000000000,0.00010000000000000,0.00076200000000000,0.51800000000000000,0.63000000000000000
203000.00000000000000000,-0.00010200000000000,-0.00008880000000000,-0.00007590000000000,-0.00000002800000000,0.00000001290000000,0.00007630000000000,0.00013400000000000,-0.00001150000000000,-0.00016600000000000,0.16900000000000000,0.00062200000000000,-0.17200000000000000,0.00009990000000000,0.00076300000000000,0.51900000000000000,0.63100000000000000
203000.00000000000000000,-0.00010200000000000,-0.00008890000000000,-0.00007600000000000,-0.00000002640000000,0.00000001510000000,0.00007630000000000,0.00013400000000000,-0.00001170000000000,-0.00016700000000000,0.17000000000000000,0.00062400000000000,-0.17200000000000000,0.00010700000000000,0.00076400000000000,0.51900000000000000,0.63100000000000000
203000.00000000000000000,-0.00010200000000000,-0.00008900000000000,-0.00007610000000000,-0.00000002630000000,0.00000000700000000,0.00007630000000000,0.00013400000000000,-0.00001170000000000,-0.00016700000000000,0.17000000000000000,0.00062400000000000,-0.17300000000000000,0.00010400000000000,0.00075900000000000,0.51900000000000000,0.63100000000000000
203000.00000000000000000,-0.00010200000000000,-0.00008890000000000,-0.00007600000000000,-0.00000002850000000,0.00000001720000000,0.00007630000000000,0.00013400000000000,-0.00001160000000000,-0.00016700000000000,0.17000000000000000,0.00062300000000000,-0.17300000000000000,0.00010100000000000,0.00076300000000000,0.51900000000000000,0.63200000000000000
204000.00000000000000000,-0.00010200000000000,-0.00008900000000000,-0.00007600000000000,-0.00000002690000000,0.00000000228000000,0.00007640000000000,0.00013400000000000,-0.00001170000000000,-0.00016700000000000,0.17000000000000000,0.00062400000000000,-0.17300000000000000,0.00009790000000000,0.00075600000000000,0.52000000000000000,0.63200000000000000
204000.00000000000000000,-0.00010200000000000,-0.00008900000000000,-0.00007610000000000,-0.00000002590000000,-0.00000000444000000,0.00007640000000000,0.00013400000000000,-0.00001170000000000,-0.00016700000000000,0.17000000000000000,0.00062400000000000,-0.17300000000000000,0.00009880000000000,0.00075000000000000,0.52000000000000000,0.63200000000000000
204000.00000000000000000,-0.00010200000000000,-0.00008910000000000,-0.00007610000000000,-0.00000002840000000,0.00000003290000000,0.00007640000000000,0.00013400000000000,-0.00001170000000000,-0.00016700000000000,0.17100000000000000,0.00062500000000000,-0.17300000000000000,0.00011000000000000,0.00076600000000000,0.52000000000000000,0.63300000000000000
204000.00000000000000000,-0.00010200000000000,-0.00008910000000000,-0.00007610000000000,-0.00000002730000000,0.00000001560000000,0.00007640000000000,0.00013400000000000,-0.00001170000000000,-0.00016700000000000,0.17100000000000000,0.00062500000000000,-0.17400000000000000,0.00010400000000000,0.00075800000000000,0.52000000000000000,0.63300000000000000
204000.00000000000000000,-0.00010200000000000,-0.00008910000000000,-0.00007610000000000,-0.00000002580000000,-0.00000000610000000,0.00007640000000000,0.00013400000000000,-0.00001170000000000,-0.00016700000000000,0.17100000000000000,0.00062400000000000,-0.17400000000000000,0.00009640000000000,0.00074900000000000,0.52100000000000000,0.63300000000000000
204000.00000000000000000,-0.00010200000000000,-0.00008920000000000,-0.00007620000000000,-0.00000002790000000,0.00000002530000000,0.00007640000000000,0.00013400000000000,-0.00001180000000000,-0.00016700000000000,0.17100000000000000,0.00062500000000000,-0.17400000000000000,0.00010500000000000,0.00076200000000000,0.52100000000000000,0.63400000000000000
204000.00000000000000000,-0.00010300000000000,-0.00008920000000000,-0.00007620000000000,-0.00000002850000000,0.00000002960000000,0.00007640000000000,0.00013400000000000,-0.00001180000000000,-0.00016700000000000,0.17100000000000000,0.00062500000000000,-0.17400000000000000,0.00010700000000000,0.00076000000000000,0.52100000000000000,0.63400000000000000
204000.00000000000000000,-0.00010300000000000,-0.00008920000000000,-0.00007620000000000,-0.00000002700000000,0.00000001400000000,0.00007640000000000,0.00013400000000000,-0.00001180000000000,-0.00016700000000000,0.17100000000000000,0.00062500000000000,-0.17400000000000000,0.00010300000000000,0.00075300000000000,0.52100000000000000,0.63400000000000000
204000.00000000000000000,-0.00010300000000000,-0.00008920000000000,-0.00007610000000000,-0.00000002770000000,0.00000001290000000,0.00007650000000000,0.00013400000000000,-0.00001170000000000,-0.00016700000000000,0.17200000000000000,0.00062500000000000,-0.17400000000000000,0.00009810000000000,0.00075400000000000,0.52200000000000000,0.63500000000000000
204000.00000000000000000,-0.00010300000000000,-0.00008910000000000,-0.00007610000000000,-0.00000002790000000,0.00000000719000000,0.00007650000000000,0.00013400000000000,-0.00001170000000000,-0.00016700000000000,0.17200000000000000,0.00062500000000000,-0.17500000000000000,0.00009440000000000,0.00075300000000000,0.52200000000000000,0.63500000000000000
205000.00000000000000000,-0.00010300000000000,-0.00008930000000000,-0.00007620000000000,-0.00000002660000000,0.00000000789000000,0.00007650000000000,0.00013400000000000,-0.00001180000000000,-0.00016700000000000,0.17200000000000000,0.00062600000000000,-0.17500000000000000,0.00010100000000000,0.00075500000000000,0.52200000000000000,0.63500000000000000
205000.00000000000000000,-0.00010300000000000,-0.00008940000000000,-0.00007630000000000,-0.00000002820000000,0.00000003020000000,0.00007650000000000,0.00013400000000000,-0.00001190000000000,-0.00016700000000000,0.17200000000000000,0.00062600000000000,-0.17500000000000000,0.00010900000000000,0.00076500000000000,0.52200000000000000,0.63600000000000000
205000.00000000000000000,-0.00010300000000000,-0.00008940000000000,-0.00007630000000000,-0.00000002780000000,0.00000002250000000,0.00007650000000000,0.00013400000000000,-0.00001190000000000,-0.00016700000000000,0.17200000000000000,0.00062700000000000,-0.17500000000000000,0.00010600000000000,0.00076300000000000,0.52200000000000000,0.63600000000000000
205000.00000000000000000,-0.00010300000000000,-0.00008940000000000,-0.00007630000000000,-0.00000002560000000,-0.00000001040000000,0.00007650000000000,0.00013500000000000,-0.00001190000000000,-0.00016700000000000,0.17300000000000000,0.00062600000000000,-0.17500000000000000,0.00009570000000000,0.00075000000000000,0.52300000000000000,0.63600000000000000
205000.00000000000000000,-0.00010300000000000,-0.00008940000000000,-0.00007630000000000,-0.00000002690000000,0.00000000306000000,0.00007650000000000,0.00013500000000000,-0.00001190000000000,-0.00016700000000000,0.17300000000000000,0.00062700000000000,-0.17600000000000000,0.00009890000000000,0.00075700000000000,0.52300000000000000,0.63700000000000000
205000.00000000000000000,-0.00010300000000000,-0.00008950000000000,-0.00007640000000000,-0.00000002780000000,0.00000002420000000,0.00007660000000000,0.00013500000000000,-0.00001200000000000,-0.00016700000000000,0.17300000000000000,0.00062700000000000,-0.17600000000000000,0.00011000000000000,0.00076600000000000,0.52300000000000000,0.63700000000000000
205000.00000000000000000,-0.00010300000000000,-0.00008950000000000,-0.00007640000000000,-0.00000002740000000,0.00000002050000000,0.00007660000000000,0.00013500000000000,-0.00001200000000000,-0.00016700000000000,0.17300000000000000,0.00062800000000000,-0.17600000000000000,0.00011000000000000,0.00076300000000000,0.52300000000000000,0.63700000000000000
205000.00000000000000000,-0.00010300000000000,-0.00008960000000000,-0.00007640000000000,-0.00000002730000000,0.00000001130000000,0.00007660000000000,0.00013500000000000,-0.00001200000000000,-0.00016700000000000,0.17300000000000000,0.00062800000000000,-0.17600000000000000,0.00010500000000000,0.00076000000000000,0.52400000000000000,0.63700000000000000
205000.00000000000000000,-0.00010300000000000,-0.00008960000000000,-0.00007640000000000,-0.00000002720000000,0.00000000491000000,0.00007660000000000,0.00013500000000000,-0.00001200000000000,-0.00016700000000000,0.17400000000000000,0.00062800000000000,-0.17600000000000000,0.00010100000000000,0.00075800000000000,0.52400000000000000,0.63800000000000000
205000.00000000000000000,-0.00010300000000000,-0.00008960000000000,-0.00007650000000000,-0.00000002710000000,0.00000000646000000,0.00007660000000000,0.00013500000000000,-0.00001200000000000,-0.00016800000000000,0.17400000000000000,0.00062800000000000,-0.17700000000000000,0.00010300000000000,0.00075800000000000,0.52400000000000000,0.63800000000000000
206000.00000000000000000,-0.00010300000000000,-0.00008970000000000,-0.00007650000000000,-0.00000002730000000,0.00000002340000000,0.00007660000000000,0.00013500000000000,-0.00001210000000000,-0.00016800000000000,0.17400000000000000,0.00062900000000000,-0.17700000000000000,0.00011200000000000,0.00076500000000000,0.52400000000000000,0.63800000000000000
206000.00000000000000000,-0.00010300000000000,-0.00008970000000000,-0.00007650000000000,-0.00000002850000000,0.00000003220000000,0.00007660000000000,0.00013500000000000,-0.00001210000000000,-0.00016800000000000,0.17400000000000000,0.00062900000000000,-0.17700000000000000,0.00011300000000000,0.00076900000000000,0.52500000000000000,0.63900000000000000
206000.00000000000000000,-0.00010300000000000,-0.00008970000000000,-0.00007650000000000,-0.00000002720000000,0.00000000703000000,0.00007670000000000,0.00013500000000000,-0.00001200000000000,-0.00016800000000000,0.17400000000000000,0.00062800000000000,-0.17700000000000000,0.00010100000000000,0.00075700000000000,0.52500000000000000,0.63900000000000000
206000.00000000000000000,-0.00010300000000000,-0.00008970000000000,-0.00007650000000000,-0.00000002660000000,-0.00000000277000000,0.00007670000000000,0.00013500000000000,-0.00001200000000000,-0.00016800000000000,0.17500000000000000,0.00062800000000000,-0.17700000000000000,0.00009720000000000,0.00075100000000000,0.52500000000000000,0.63900000000000000
206000.00000000000000000,-0.00010300000000000,-0.00008970000000000,-0.00007650000000000,-0.00000002830000000,0.00000001590000000,0.00007670000000000,0.00013500000000000,-0.00001200000000000,-0.00016800000000000,0.17500000000000000,0.00062900000000000,-0.17800000000000000,0.00010200000000000,0.00075600000000000,0.52500000000000000,0.64000000000000000
206000.00000000000000000,-0.00010300000000000,-0.00008980000000000,-0.00007650000000000,-0.00000002800000000,0.00000002110000000,0.00007670000000000,0.00013500000000000,-0.00001210000000000,-0.00016800000000000,0.17500000000000000,0.00062900000000000,-0.17800000000000000,0.00010600000000000,0.00075800000000000,0.52600000000000000,0.64000000000000000
206000.00000000000000000,-0.00010300000000000,-0.00008980000000000,-0.00007650000000000,-0.00000002720000000,0.00000000997000000,0.00007670000000000,0.00013500000000000,-0.00001210000000000,-0.00016800000000000,0.17500000000000000,0.00062900000000000,-0.17800000000000000,0.00010200000000000,0.00075500000000000,0.52600000000000000,0.64000000000000000
206000.00000000000000000,-0.00010300000000000,-0.00008980000000000,-0.00007650000000000,-0.00000002750000000,0.00000000903000000,0.00007670000000000,0.00013500000000000,-0.00001210000000000,-0.00016800000000000,0.17500000000000000,0.00062900000000000,-0.17800000000000000,0.00009940000000000,0.00075600000000000,0.52600000000000000,0.64100000000000000
206000.00000000000000000,-0.00010300000000000,-0.00008990000000000,-0.00007660000000000,-0.00000002740000000,0.00000001330000000,0.00007670000000000,0.00013500000000000,-0.00001210000000000,-0.00016800000000000,0.17500000000000000,0.00063000000000000,-0.17800000000000000,0.00010300000000000,0.00075800000000000,0.52600000000000000,0.64100000000000000
206000.00000000000000000,-0.00010400000000000,-0.00008990000000000,-0.00007670000000000,-0.00000002720000000,0.00000001600000000,0.00007670000000000,0.00013500000000000,-0.00001220000000000,-0.00016800000000000,0.17600000000000000,0.00063000000000000,-0.17900000000000000,0.00010700000000000,0.00075700000000000,0.52600000000000000,0.64100000000000000
207000.00000000000000000,-0.00010400000000000,-0.00009000000000000,-0.00007670000000000,-0.00000002820000000,0.00000002820000000,0.00007680000000000,0.00013500000000000,-0.00001220000000000,-0.00016800000000000,0.17600000000000000,0.00063100000000000,-0.17900000000000000,0.00011000000000000,0.00076300000000000,0.52700000000000000,0.64200000000000000
207000.00000000000000000,-0.00010400000000000,-0.00009000000000000,-0.00007670000000000,-0.00000002780000000,0.00000001610000000,0.00007680000000000,0.00013500000000000,-0.00001220000000000,-0.00016800000000000,0.17600000000000000,0.00063000000000000,-0.17900000000000000,0.00010500000000000,0.00075900000000000,0.52700000000000000,0.64200000000000000
207000.00000000000000000,-0.00010400000000000,-0.00009000000000000,-0.00007670000000000,-0.00000002690000000,0.00000000297000000,0.00007680000000000,0.00013500000000000,-0.00001220000000000,-0.00016800000000000,0.17600000000000000,0.00063000000000000,-0.17900000000000000,0.00010100000000000,0.00075400000000000,0.52700000000000000,0.64200000000000000
207000.00000000000000000,-0.00010400000000000,-0.00009010000000000,-0.00007670000000000,-0.00000002810000000,0.00000002510000000,0.00007680000000000,0.00013500000000000,-0.00001230000000000,-0.00016800000000000,0.17600000000000000,0.00063100000000000,-0.17900000000000000,0.00011000000000000,0.00076500000000000,0.52700000000000000,0.64300000000000000
207000.00000000000000000,-0.00010400000000000,-0.00009010000000000,-0.00007680000000000,-0.00000002820000000,0.00000002590000000,0.00007680000000000,0.00013500000000000,-0.00001230000000000,-0.00016800000000000,0.17700000000000000,0.00063200000000000,-0.17900000000000000,0.00011200000000000,0.00076400000000000,0.52800000000000000,0.64300000000000000
207000.00000000000000000,-0.00010400000000000,-0.00009020000000000,-0.00007680000000000,-0.00000002700000000,0.00000001210000000,0.00007680000000000,0.00013500000000000,-0.00001230000000000,-0.00016800000000000,0.17700000000000000,0.00063200000000000,-0.18000000000000000,0.00010800000000000,0.00076100000000000,0.52800000000000000,0.64300000000000000
207000.00000000000000000,-0.00010400000000000,-0.00009020000000000,-0.00007680000000000,-0.00000002710000000,0.00000000581000000,0.00007680000000000,0.00013500000000000,-0.00001230000000000,-0.00016800000000000,0.17700000000000000,0.00063200000000000,-0.18000000000000000,0.00010400000000000,0.00076000000000000,0.52800000000000000,0.64400000000000000
207000.00000000000000000,-0.00010400000000000,-0.00009020000000000,-0.00007680000000000,-0.00000002710000000,0.00000000535000000,0.00007690000000000,0.00013500000000000,-0.00001230000000000,-0.00016800000000000,0.17700000000000000,0.00063200000000000,-0.18000000000000000,0.00010400000000000,0.00076000000000000,0.52800000000000000,0.64400000000000000
207000.00000000000000000,-0.00010400000000000,-0.00009030000000000,-0.00007690000000000,-0.00000002740000000,0.00000001770000000,0.00007690000000000,0.00013500000000000,-0.00001240000000000,-0.00016900000000000,0.17700000000000000,0.00063300000000000,-0.18000000000000000,0.00011100000000000,0.00076500000000000,0.52900000000000000,0.64400000000000000
207000.00000000000000000,-0.00010400000000000,-0.00009030000000000,-0.00007690000000000,-0.00000002760000000,0.00000001550000000,0.00007690000000000,0.00013500000000000,-0.00001240000000000,-0.00016900000000000,0.17800000000000000,0.00063300000000000,-0.18000000000000000,0.00010900000000000,0.00076200000000000,0.52900000000000000,0.64500000000000000
208000.00000000000000000,-0.00010400000000000,-0.00009030000000000,-0.00007680000000000,-0.00000002740000000,0.00000000516000000,0.00007690000000000,0.00013500000000000,-0.00001230000000000,-0.00016900000000000,0.17800000000000000,0.00063200000000000,-0.18100000000000000,0.00010300000000000,0.00075800000000000,0.52900000000000000,0.64500000000000000
208000.00000000000000000,-0.00010400000000000,-0.00009030000000000,-0.00007680000000000,-0.00000002690000000,-0.00000000430000000,0.00007690000000000,0.00013500000000000,-0.00001230000000000,-0.00016900000000000,0.17800000000000000,0.00063200000000000,-0.18100000000000000,0.00009840000000000,0.00075300000000000,0.52900000000000000,0.64500000000000000
208000.00000000000000000,-0.00010400000000000,-0.00009030000000000,-0.00007690000000000,-0.00000002720000000,0.00000000614000000,0.00007690000000000,0.00013500000000000,-0.00001240000000000,-0.00016900000000000,0.17800000000000000,0.00063300000000000,-0.18100000000000000,0.00010400000000000,0.00075600000000000,0.53000000000000000,0.64600000000000000
208000.00000000000000000,-0.00010400000000000,-0.00009040000000000,-0.00007700000000000,-0.00000002850000000,0.00000003070000000,0.00007690000000000,0.00013500000000000,-0.00001250000000000,-0.00016900000000000,0.17800000000000000,0.00063400000000000,-0.18100000000000000,0.00011300000000000,0.00076600000000000,0.53000000000000000,0.64600000000000000
208000.00000000000000000,-0.00010400000000000,-0.00009050000000000,-0.00007700000000000,-0.00000002780000000,0.00000002090000000,0.00007700000000000,0.00013500000000000,-0.00001250000000000,-0.00016900000000000,0.17900000000000000,0.00063400000000000,-0.18100000000000000,0.00011000000000000,0.00076100000000000,0.53000000000000000,0.64600000000000000
208000.00000000000000000,-0.00010400000000000,-0.00009040000000000,-0.00007690000000000,-0.00000002700000000,0.00000000698000000,0.00007700000000000,0.00013500000000000,-0.00001240000000000,-0.00016900000000000,0.17900000000000000,0.00063300000000000,-0.18200000000000000,0.00010300000000000,0.00075600000000000,0.53000000000000000,0.64700000000000000
208000.00000000000000000,-0.00010400000000000,-0.00009050000000000,-0.00007690000000000,-0.00000002770000000,0.00000001310000000,0.00007700000000000,0.00013500000000000,-0.00001240000000000,-0.00016900000000000,0.17900000000000000,0.00063300000000000,-0.18200000000000000,0.00010400000000000,0.00075700000000000,0.53000000000000000,0.64700000000000000
208000.00000000000000000,-0.00010400000000000,-0.00009050000000000,-0.00007700000000000,-0.00000002800000000,0.00000002210000000,0.00007700000000000,0.00013500000000000,-0.00001250000000000,-0.00016900000000000,0.17900000000000000,0.00063400000000000,-0.18200000000000000,0.00010900000000000,0.00075900000000000,0.53100000000000000,0.64700000000000000
208000.00000000000000000,-0.00010400000000000,-0.00009060000000000,-0.00007700000000000,-0.00000002810000000,0.00000002870000000,0.00007700000000000,0.00013500000000000,-0.00001250000000000,-0.00016900000000000,0.17900000000000000,0.00063400000000000,-0.18200000000000000,0.00011300000000000,0.00076200000000000,0.53100000000000000,0.64800000000000000
208000.00000000000000000,-0.00010400000000000,-0.00009060000000000,-0.00007700000000000,-0.00000002840000000,0.00000002180000000,0.00007700000000000,0.00013500000000000,-0.00001250000000000,-0.00016900000000000,0.17900000000000000,0.00063400000000000,-0.18200000000000000,0.00010800000000000,0.00075900000000000,0.53100000000000000,0.64800000000000000
209000.00000000000000000,-0.00010400000000000,-0.00009060000000000,-0.00007700000000000,-0.00000002730000000,0.00000000550000000,0.00007700000000000,0.00013600000000000,-0.00001250000000000,-0.00016900000000000,0.18000000000000000,0.00063400000000000,-0.18300000000000000,0.00010100000000000,0.00075400000000000,0.53100000000000000,0.64800000000000000
209000.00000000000000000,-0.00010500000000000,-0.00009060000000000,-0.00007710000000000,-0.00000002700000000,0.00000000591000000,0.00007700000000000,0.00013600000000000,-0.00001250000000000,-0.00016900000000000,0.18000000000000000,0.00063500000000000,-0.18300000000000000,0.00010400000000000,0.00075600000000000,0.53200000000000000,0.64900000000000000
209000.00000000000000000,-0.00010500000000000,-0.00009070000000000,-0.00007710000000000,-0.00000002800000000,0.00000002270000000,0.00007710000000000,0.00013600000000000,-0.00001260000000000,-0.00016900000000000,0.18000000000000000,0.00063500000000000,-0.18300000000000000,0.00011100000000000,0.00076300000000000,0.53200000000000000,0.64900000000000000
209000.00000000000000000,-0.00010500000000000,-0.00009080000000000,-0.00007720000000000,-0.00000002760000000,0.00000002040000000,0.00007710000000000,0.00013600000000000,-0.00001260000000000,-0.00016900000000000,0.18000000000000000,0.00063600000000000,-0.18300000000000000,0.00011200000000000,0.00076400000000000,0.53200000000000000,0.64900000000000000
209000.00000000000000000,-0.00010500000000000,-0.00009080000000000,-0.00007720000000000,-0.00000002690000000,0.00000000456000000,0.00007710000000000,0.00013600000000000,-0.00001260000000000,-0.00016900000000000,0.18000000000000000,0.00063600000000000,-0.18300000000000000,0.00010500000000000,0.00075800000000000,0.53200000000000000,0.65000000000000000
209000.00000000000000000,-0.00010500000000000,-0.00009080000000000,-0.00007720000000000,-0.00000002720000000,0.00000000284000000,0.00007710000000000,0.00013600000000000,-0.00001260000000000,-0.00016900000000000,0.18100000000000000,0.00063600000000000,-0.18400000000000000,0.00010300000000000,0.00075800000000000,0.53300000000000000,0.65000000000000000
209000.00000000000000000,-0.00010500000000000,-0.00009080000000000,-0.00007720000000000,-0.00000002750000000,0.00000000963000000,0.00007710000000000,0.00013600000000000,-0.00001270000000000,-0.00016900000000000,0.18100000000000000,0.00063600000000000,-0.18400000000000000,0.00010800000000000,0.00076000000000000,0.53300000000000000,0.65000000000000000
209000.00000000000000000,-0.00010500000000000,-0.00009090000000000,-0.00007730000000000,-0.00000002770000000,0.00000001650000000,0.00007710000000000,0.00013600000000000,-0.00001270000000000,-0.00016900000000000,0.18100000000000000,0.00063700000000000,-0.18400000000000000,0.00011100000000000,0.00076200000000000,0.53300000000000000,0.65100000000000000
209000.00000000000000000,-0.00010500000000000,-0.00009090000000000,-0.00007730000000000,-0.00000002770000000,0.00000001510000000,0.00007710000000000,0.00013600000000000,-0.00001270000000000,-0.00016900000000000,0.18100000000000000,0.00063700000000000,-0.18400000000000000,0.00011000000000000,0.00076300000000000,0.53300000000000000,0.65100000000000000
209000.00000000000000000,-0.00010500000000000,-0.00009090000000000,-0.00007730000000000,-0.00000002740000000,0.00000000729000000,0.00007720000000000,0.00013600000000000,-0.00001270000000000,-0.00016900000000000,0.18100000000000000,0.00063700000000000,-0.18400000000000000,0.00010700000000000,0.00076000000000000,0.53300000000000000,0.65100000000000000
210000.00000000000000000,-0.00010500000000000,-0.00009100000000000,-0.00007730000000000,-0.00000002720000000,0.00000000935000000,0.00007720000000000,0.00013600000000000,-0.00001280000000000,-0.00017000000000000,0.18200000000000000,0.00063700000000000,-0.18400000000000000,0.00010800000000000,0.00076100000000000,0.53400000000000000,0.65200000000000000
210000.00000000000000000,-0.00010500000000000,-0.00009110000000000,-0.00007740000000000,-0.00000002780000000,0.00000002170000000,0.00007720000000000,0.00013600000000000,-0.00001280000000000,-0.00017000000000000,0.18200000000000000,0.00063800000000000,-0.18500000000000000,0.00011400000000000,0.00076500000000000,0.53400000000000000,0.65200000000000000
210000.00000000000000000,-0.00010500000000000,-0.00009110000000000,-0.00007740000000000,-0.00000002820000000,0.00000002450000000,0.00007720000000000,0.00013600000000000,-0.00001280000000000,-0.00017000000000000,0.18200000000000000,0.00063800000000000,-0.18500000000000000,0.00011400000000000,0.00076500000000000,0.53400000000000000,0.65200000000000000
210000.00000000000000000,-0.00010500000000000,-0.00009110000000000,-0.00007730000000000,-0.00000002730000000,0.00000001060000000,0.00007720000000000,0.00013600000000000,-0.00001280000000000,-0.00017000000000000,0.18200000000000000,0.00063800000000000,-0.18500000000000000,0.00010800000000000,0.00075900000000000,0.53400000000000000,0.65200000000000000
210000.00000000000000000,-0.00010500000000000,-0.00009110000000000,-0.00007730000000000,-0.00000002730000000,0.00000000608000000,0.00007720000000000,0.00013600000000000,-0.00001280000000000,-0.00017000000000000,0.18200000000000000,0.00063700000000000,-0.18500000000000000,0.00010500000000000,0.00075700000000000,0.53500000000000000,0.65300000000000000
210000.00000000000000000,-0.00010500000000000,-0.00009110000000000,-0.00007730000000000,-0.00000002800000000,0.00000001670000000,0.00007720000000000,0.00013600000000000,-0.00001280000000000,-0.00017000000000000,0.18300000000000000,0.00063800000000000,-0.18500000000000000,0.00010800000000000,0.00076000000000000,0.53500000000000000,0.65300000000000000
210000.00000000000000000,-0.00010500000000000,-0.00009120000000000,-0.00007740000000000,-0.00000002800000000,0.00000002200000000,0.00007720000000000,0.00013600000000000,-0.00001280000000000,-0.00017000000000000,0.18300000000000000,0.00063800000000000,-0.18600000000000000,0.00011200000000000,0.00076100000000000,0.53500000000000000,0.65300000000000000
210000.00000000000000000,-0.00010500000000000,-0.00009120000000000,-0.00007740000000000,-0.00000002770000000,0.00000001480000000,0.00007730000000000,0.00013600000000000,-0.00001280000000000,-0.00017000000000000,0.18300000000000000,0.00063800000000000,-0.18600000000000000,0.00010800000000000,0.00075800000000000,0.53500000000000000,0.65400000000000000
210000.00000000000000000,-0.00010500000000000,-0.00009120000000000,-0.00007740000000000,-0.00000002740000000,0.00000000670000000,0.00007730000000000,0.00013600000000000,-0.00001280000000000,-0.00017000000000000,0.18300000000000000,0.00063800000000000,-0.18600000000000000,0.00010300000000000,0.00075600000000000,0.53600000000000000,0.65400000000000000
210000.00000000000000000,-0.00010500000000000,-0.00009120000000000,-0.00007740000000000,-0.00000002720000000,0.00000000676000000,0.00007730000000000,0.00013600000000000,-0.00001280000000000,-0.00017000000000000,0.18300000000000000,0.00063800000000000,-0.18600000000000000,0.00010500000000000,0.00075600000000000,0.53600000000000000,0.65400000000000000
211000.00000000000000000,-0.00010500000000000,-0.00009130000000000,-0.00007750000000000,-0.00000002770000000,0.00000001840000000,0.00007730000000000,0.00013600000000000,-0.00001290000000000,-0.00017000000000000,0.18400000000000000,0.00063900000000000,-0.18600000000000000,0.00011100000000000,0.00076100000000000,0.53600000000000000,0.65500000000000000
211000.00000000000000000,-0.00010500000000000,-0.00009130000000000,-0.00007750000000000,-0.00000002840000000,0.00000002750000000,0.00007730000000000,0.00013600000000000,-0.00001290000000000,-0.00017000000000000,0.18400000000000000,0.00063900000000000,-0.18700000000000000,0.00011400000000000,0.00076400000000000,0.53600000000000000,0.65500000000000000
211000.00000000000000000,-0.00010600000000000,-0.00009130000000000,-0.00007750000000000,-0.00000002770000000,0.00000001210000000,0.00007730000000000,0.00013600000000000,-0.00001290000000000,-0.00017000000000000,0.18400000000000000,0.00063900000000000,-0.18700000000000000,0.00010800000000000,0.00075800000000000,0.53600000000000000,0.65500000000000000
211000.00000000000000000,-0.00010600000000000,-0.00009140000000000,-0.00007750000000000,-0.00000002720000000,0.00000000247000000,0.00007730000000000,0.00013600000000000,-0.00001290000000000,-0.00017000000000000,0.18400000000000000,0.00063900000000000,-0.18700000000000000,0.00010400000000000,0.00075500000000000,0.53700000000000000,0.65600000000000000
211000.00000000000000000,-0.00010600000000000,-0.00009140000000000,-0.00007760000000000,-0.00000002800000000,0.00000001440000000,0.00007740000000000,0.00013600000000000,-0.00001300000000000,-0.00017000000000000,0.18400000000000000,0.00064000000000000,-0.18700000000000000,0.00010900000000000,0.00076000000000000,0.53700000000000000,0.65600000000000000
211000.00000000000000000,-0.00010600000000000,-0.00009150000000000,-0.00007760000000000,-0.00000002810000000,0.00000002260000000,0.00007740000000000,0.00013600000000000,-0.00001300000000000,-0.00017000000000000,0.18500000000000000,0.00064100000000000,-0.18700000000000000,0.00011500000000000,0.00076400000000000,0.53700000000000000,0.65600000000000000
211000.00000000000000000,-0.00010600000000000,-0.00009160000000000,-0.00007770000000000,-0.00000002790000000,0.00000002260000000,0.00007740000000000,0.00013600000000000,-0.00001310000000000,-0.00017000000000000,0.18500000000000000,0.00064100000000000,-0.18800000000000000,0.00011600000000000,0.00076600000000000,0.53700000000000000,0.65700000000000000
211000.00000000000000000,-0.00010600000000000,-0.00009160000000000,-0.00007760000000000,-0.00000002750000000,0.00000001020000000,0.00007740000000000,0.00013600000000000,-0.00001310000000000,-0.00017000000000000,0.18500000000000000,0.00064100000000000,-0.18800000000000000,0.00011000000000000,0.00076200000000000,0.53800000000000000,0.65700000000000000
211000.00000000000000000,-0.00010600000000000,-0.00009160000000000,-0.00007770000000000,-0.00000002700000000,0.00000000195000000,0.00007740000000000,0.00013600000000000,-0.00001310000000000,-0.00017000000000000,0.18500000000000000,0.00064100000000000,-0.18800000000000000,0.00010700000000000,0.00075900000000000,0.53800000000000000,0.65700000000000000
211000.00000000000000000,-0.00010600000000000,-0.00009160000000000,-0.00007770000000000,-0.00000002750000000,0.00000001200000000,0.00007740000000000,0.00013600000000000,-0.00001310000000000,-0.00017100000000000,0.18500000000000000,0.00064100000000000,-0.18800000000000000,0.00011200000000000,0.00076300000000000,0.53800000000000000,0.65800000000000000
212000.00000000000000000,-0.00010600000000000,-0.00009170000000000,-0.00007770000000000,-0.00000002800000000,0.00000001880000000,0.00007740000000000,0.00013600000000000,-0.00001310000000000,-0.00017100000000000,0.18500000000000000,0.00064200000000000,-0.18800000000000000,0.00011500000000000,0.00076500000000000,0.53800000000000000,0.65800000000000000
212000.00000000000000000,-0.00010600000000000,-0.00009170000000000,-0.00007770000000000,-0.00000002770000000,0.00000001270000000,0.00007750000000000,0.00013600000000000,-0.00001310000000000,-0.00017100000000000,0.18600000000000000,0.00064200000000000,-0.18900000000000000,0.00011200000000000,0.00076300000000000,0.53800000000000000,0.65800000000000000
212000.00000000000000000,-0.00010600000000000,-0.00009170000000000,-0.00007770000000000,-0.00000002710000000,0.00000000118000000,0.00007750000000000,0.00013600000000000,-0.00001310000000000,-0.00017100000000000,0.18600000000000000,0.00064100000000000,-0.18900000000000000,0.00010600000000000,0.00075800000000000,0.53900000000000000,0.65900000000000000
212000.00000000000000000,-0.00010600000000000,-0.00009170000000000,-0.00007770000000000,-0.00000002730000000,0.00000000405000000,0.00007750000000000,0.00013600000000000,-0.00001310000000000,-0.00017100000000000,0.18600000000000000,0.00064200000000000,-0.18900000000000000,0.00010700000000000,0.00075900000000000,0.53900000000000000,0.65900000000000000
212000.00000000000000000,-0.00010600000000000,-0.00009180000000000,-0.00007780000000000,-0.00000002790000000,0.00000001810000000,0.00007750000000000,0.00013600000000000,-0.00001320000000000,-0.00017100000000000,0.18600000000000000,0.00064200000000000,-0.18900000000000000,0.00011300000000000,0.00076300000000000,0.53900000000000000,0.65900000000000000
212000.00000000000000000,-0.00010600000000000,-0.00009180000000000,-0.00007780000000000,-0.00000002780000000,0.00000001920000000,0.00007750000000000,0.00013600000000000,-0.00001320000000000,-0.00017100000000000,0.18600000000000000,0.00064300000000000,-0.18900000000000000,0.00011400000000000,0.00076300000000000,0.53900000000000000,0.66000000000000000
212000.00000000000000000,-0.00010600000000000,-0.00009180000000000,-0.00007780000000000,-0.00000002760000000,0.00000001390000000,0.00007750000000000,0.00013600000000000,-0.00001320000000000,-0.00017100000000000,0.18700000000000000,0.00064300000000000,-0.19000000000000000,0.00011100000000000,0.00076100000000000,0.54000000000000000,0.66000000000000000
212000.00000000000000000,-0.00010600000000000,-0.00009180000000000,-0.00007780000000000,-0.00000002770000000,0.00000001160000000,0.00007750000000000,0.00013700000000000,-0.00001320000000000,-0.00017100000000000,0.18700000000000000,0.00064200000000000,-0.19000000000000000,0.00010900000000000,0.00075900000000000,0.54000000000000000,0.66000000000000000
212000.00000000000000000,-0.00010600000000000,-0.00009190000000000,-0.00007780000000000,-0.00000002780000000,0.00000001620000000,0.00007750000000000,0.00013700000000000,-0.00001320000000000,-0.00017100000000000,0.18700000000000000,0.00064300000000000,-0.19000000000000000,0.00011100000000000,0.00076000000000000,0.54000000000000000,0.66100000000000000
212000.00000000000000000,-0.00010600000000000,-0.00009190000000000,-0.00007790000000000,-0.00000002840000000,0.00000002540000000,0.00007760000000000,0.00013700000000000,-0.00001320000000000,-0.00017100000000000,0.18700000000000000,0.00064300000000000,-0.19000000000000000,0.00011500000000000,0.00076200000000000,0.54000000000000000,0.66100000000000000
213000.00000000000000000,-0.00010600000000000,-0.00009190000000000,-0.00007790000000000,-0.00000002840000000,0.00000002150000000,0.00007760000000000,0.00013700000000000,-0.00001320000000000,-0.00017100000000000,0.18700000000000000,0.00064300000000000,-0.19000000000000000,0.00011300000000000,0.00076000000000000,0.54100000000000000,0.66100000000000000
213000.00000000000000000,-0.00010600000000000,-0.00009200000000000,-0.00007790000000000,-0.00000002760000000,0.00000000918000000,0.00007760000000000,0.00013700000000000,-0.00001320000000000,-0.00017100000000000,0.18800000000000000,0.00064300000000000,-0.19000000000000000,0.00010800000000000,0.00075700000000000,0.54100000000000000,0.66100000000000000
213000.00000000000000000,-0.00010600000000000,-0.00009200000000000,-0.00007790000000000,-0.00000002770000000,0.00000001140000000,0.00007760000000000,0.00013700000000000,-0.00001330000000000,-0.00017100000000000,0.18800000000000000,0.00064400000000000,-0.19100000000000000,0.00010900000000000,0.00075800000000000,0.54100000000000000,0.66200000000000000
213000.00000000000000000,-0.00010700000000000,-0.00009210000000000,-0.00007800000000000,-0.00000002810000000,0.00000001960000000,0.00007760000000000,0.00013700000000000,-0.00001330000000000,-0.00017100000000000,0.18800000000000000,0.00064400000000000,-0.19100000000000000,0.00011400000000000,0.00076200000000000,0.54100000000000000,0.66200000000000000
213000.00000000000000000,-0.00010700000000000,-0.00009210000000000,-0.00007800000000000,-0.00000002770000000,0.00000001710000000,0.00007760000000000,0.00013700000000000,-0.00001340000000000,-0.00017100000000000,0.18800000000000000,0.00064500000000000,-0.19100000000000000,0.00011400000000000,0.00076100000000000,0.54100000000000000,0.66200000000000000
213000.00000000000000000,-0.00010700000000000,-0.00009210000000000,-0.00007800000000000,-0.00000002760000000,0.00000000955000000,0.00007760000000000,0.00013700000000000,-0.00001330000000000,-0.00017100000000000,0.18800000000000000,0.00064400000000000,-0.19100000000000000,0.00011000000000000,0.00075900000000000,0.54200000000000000,0.66300000000000000
213000.00000000000000000,-0.00010700000000000,-0.00009210000000000,-0.00007800000000000,-0.00000002740000000,0.00000000373000000,0.00007770000000000,0.00013700000000000,-0.00001330000000000,-0.00017100000000000,0.18900000000000000,0.00064400000000000,-0.19100000000000000,0.00010700000000000,0.00075800000000000,0.54200000000000000,0.66300000000000000
213000.00000000000000000,-0.00010700000000000,-0.00009220000000000,-0.00007800000000000,-0.00000002740000000,0.00000000585000000,0.00007770000000000,0.00013700000000000,-0.00001340000000000,-0.00017100000000000,0.18900000000000000,0.00064500000000000,-0.19200000000000000,0.00010900000000000,0.00075800000000000,0.54200000000000000,0.66300000000000000
213000.00000000000000000,-0.00010700000000000,-0.00009220000000000,-0.00007810000000000,-0.00000002810000000,0.00000001880000000,0.00007770000000000,0.00013700000000000,-0.00001340000000000,-0.00017100000000000,0.18900000000000000,0.00064500000000000,-0.19200000000000000,0.00011500000000000,0.00076400000000000,0.54200000000000000,0.66400000000000000
213000.00000000000000000,-0.00010700000000000,-0.00009230000000000,-0.00007810000000000,-0.00000002800000000,0.00000001570000000,0.00007770000000000,0.00013700000000000,-0.00001340000000000,-0.00017100000000000,0.18900000000000000,0.00064500000000000,-0.19200000000000000,0.00011400000000000,0.00076300000000000,0.54300000000000000,0.66400000000000000
214000.00000000000000000,-0.00010700000000000,-0.00009230000000000,-0.00007810000000000,-0.00000002720000000,0.00000000393000000,0.00007770000000000,0.00013700000000000,-0.00001340000000000,-0.00017100000000000,0.18900000000000000,0.00064600000000000,-0.19200000000000000,0.00011000000000000,0.00075900000000000,0.54300000000000000,0.66400000000000000
214000.00000000000000000,-0.00010700000000000,-0.00009230000000000,-0.00007810000000000,-0.00000002720000000,0.00000000487000000,0.00007770000000000,0.00013700000000000,-0.00001350000000000,-0.00017200000000000,0.19000000000000000,0.00064600000000000,-0.19200000000000000,0.00011000000000000,0.00076100000000000,0.54300000000000000,0.66500000000000000
214000.00000000000000000,-0.00010700000000000,-0.00009240000000000,-0.00007820000000000,-0.00000002790000000,0.00000001840000000,0.00007770000000000,0.00013700000000000,-0.00001350000000000,-0.00017200000000000,0.19000000000000000,0.00064600000000000,-0.19300000000000000,0.00011700000000000,0.00076600000000000,0.54300000000000000,0.66500000000000000
214000.00000000000000000,-0.00010700000000000,-0.00009250000000000,-0.00007820000000000,-0.00000002800000000,0.00000002340000000,0.00007770000000000,0.00013700000000000,-0.00001360000000000,-0.00017200000000000,0.19000000000000000,0.00064700000000000,-0.19300000000000000,0.00012000000000000,0.00076800000000000,0.54300000000000000,0.66500000000000000
214000.00000000000000000,-0.00010700000000000,-0.00009250000000000,-0.00007820000000000,-0.00000002750000000,0.00000001290000000,0.00007780000000000,0.00013700000000000,-0.00001360000000000,-0.00017200000000000,0.19000000000000000,0.00064700000000000,-0.19300000000000000,0.00011500000000000,0.00076400000000000,0.54400000000000000,0.66600000000000000
214000.00000000000000000,-0.00010700000000000,-0.00009250000000000,-0.00007820000000000,-0.00000002740000000,0.00000000603000000,0.00007780000000000,0.00013700000000000,-0.00001350000000000,-0.00017200000000000,0.19000000000000000,0.00064700000000000,-0.19300000000000000,0.00011100000000000,0.00076100000000000,0.54400000000000000,0.66600000000000000
214000.00000000000000000,-0.00010700000000000,-0.00009250000000000,-0.00007820000000000,-0.00000002740000000,0.00000000759000000,0.00007780000000000,0.00013700000000000,-0.00001360000000000,-0.00017200000000000,0.19100000000000000,0.00064700000000000,-0.19300000000000000,0.00011200000000000,0.00076200000000000,0.54400000000000000,0.66600000000000000
214000.00000000000000000,-0.00010700000000000,-0.00009260000000000,-0.00007830000000000,-0.00000002780000000,0.00000001640000000,0.00007780000000000,0.00013700000000000,-0.00001360000000000,-0.00017200000000000,0.19100000000000000,0.00064700000000000,-0.19400000000000000,0.00011700000000000,0.00076400000000000,0.54400000000000000,0.66700000000000000
214000.00000000000000000,-0.00010700000000000,-0.00009260000000000,-0.00007830000000000,-0.00000002800000000,0.00000001850000000,0.00007780000000000,0.00013700000000000,-0.00001360000000000,-0.00017200000000000,0.19100000000000000,0.00064800000000000,-0.19400000000000000,0.00011700000000000,0.00076600000000000,0.54500000000000000,0.66700000000000000
214000.00000000000000000,-0.00010700000000000,-0.00009260000000000,-0.00007830000000000,-0.00000002750000000,0.00000000812000000,0.00007780000000000,0.00013700000000000,-0.00001360000000000,-0.00017200000000000,0.19100000000000000,0.00064800000000000,-0.19400000000000000,0.00011200000000000,0.00076200000000000,0.54500000000000000,0.66700000000000000
215000.00000000000000000,-0.00010700000000000,-0.00009260000000000,-0.00007830000000000,-0.00000002700000000,0.00000000148000000,0.00007780000000000,0.00013700000000000,-0.00001360000000000,-0.00017200000000000,0.19100000000000000,0.00064800000000000,-0.19400000000000000,0.00011000000000000,0.00075900000000000,0.54500000000000000,0.66800000000000000
215000.00000000000000000,-0.00010700000000000,-0.00009270000000000,-0.00007830000000000,-0.00000002750000000,0.00000000998000000,0.00007790000000000,0.00013700000000000,-0.00001370000000000,-0.00017200000000000,0.19100000000000000,0.00064800000000000,-0.19400000000000000,0.00011400000000000,0.00076200000000000,0.54500000000000000,0.66800000000000000
215000.00000000000000000,-0.00010700000000000,-0.00009270000000000,-0.00007840000000000,-0.00000002810000000,0.00000002030000000,0.00007790000000000,0.00013700000000000,-0.00001370000000000,-0.00017200000000000,0.19200000000000000,0.00064900000000000,-0.19500000000000000,0.00011800000000000,0.00076600000000000,0.54600000000000000,0.66800000000000000
215000.00000000000000000,-0.00010700000000000,-0.00009280000000000,-0.00007840000000000,-0.00000002770000000,0.00000001380000000,0.00007790000000000,0.00013700000000000,-0.00001370000000000,-0.00017200000000000,0.19200000000000000,0.00064900000000000,-0.19500000000000000,0.00011500000000000,0.00076300000000000,0.54600000000000000,0.66900000000000000
215000.00000000000000000,-0.00010700000000000,-0.00009270000000000,-0.00007840000000000,-0.00000002760000000,0.00000000676000000,0.00007790000000000,0.00013700000000000,-0.00001370000000000,-0.00017200000000000,0.19200000000000000,0.00064800000000000,-0.19500000000000000,0.00011100000000000,0.00076000000000000,0.54600000000000000,0.66900000000000000
215000.00000000000000000,-0.00010800000000000,-0.00009280000000000,-0.00007840000000000,-0.00000002780000000,0.00000000977000000,0.00007790000000000,0.00013700000000000,-0.00001370000000000,-0.00017200000000000,0.19200000000000000,0.00064900000000000,-0.19500000000000000,0.00011200000000000,0.00076000000000000,0.54600000000000000,0.66900000000000000
215000.00000000000000000,-0.00010800000000000,-0.00009280000000000,-0.00007840000000000,-0.00000002810000000,0.00000001700000000,0.00007790000000000,0.00013700000000000,-0.00001370000000000,-0.00017200000000000,0.19200000000000000,0.00064900000000000,-0.19500000000000000,0.00011600000000000,0.00076200000000000,0.54600000000000000,0.66900000000000000
215000.00000000000000000,-0.00010800000000000,-0.00009290000000000,-0.00007850000000000,-0.00000002840000000,0.00000002190000000,0.00007790000000000,0.00013700000000000,-0.00001380000000000,-0.00017200000000000,0.19300000000000000,0.00065000000000000,-0.19600000000000000,0.00011800000000000,0.00076400000000000,0.54700000000000000,0.67000000000000000
215000.00000000000000000,-0.00010800000000000,-0.00009290000000000,-0.00007850000000000,-0.00000002790000000,0.00000001360000000,0.00007790000000000,0.00013700000000000,-0.00001380000000000,-0.00017200000000000,0.19300000000000000,0.00065000000000000,-0.19600000000000000,0.00011500000000000,0.00076100000000000,0.54700000000000000,0.67000000000000000
215000.00000000000000000,-0.00010800000000000,-0.00009290000000000,-0.00007850000000000,-0.00000002760000000,0.00000000954000000,0.00007800000000000,0.00013700000000000,-0.00001380000000000,-0.00017200000000000,0.19300000000000000,0.00065000000000000,-0.19600000000000000,0.00011200000000000,0.00076000000000000,0.54700000000000000,0.67000000000000000
216000.00000000000000000,-0.00010800000000000,-0.00009300000000000,-0.00007850000000000,-0.00000002800000000,0.00000001590000000,0.00007800000000000,0.00013700000000000,-0.00001380000000000,-0.00017200000000000,0.19300000000000000,0.00065000000000000,-0.19600000000000000,0.00011600000000000,0.00076200000000000,0.54700000000000000,0.67100000000000000
216000.00000000000000000,-0.00010800000000000,-0.00009300000000000,-0.00007860000000000,-0.00000002810000000,0.00000001980000000,0.00007800000000000,0.00013700000000000,-0.00001380000000000,-0.00017300000000000,0.19300000000000000,0.00065000000000000,-0.19600000000000000,0.00011800000000000,0.00076300000000000,0.54800000000000000,0.67100000000000000
216000.00000000000000000,-0.00010800000000000,-0.00009300000000000,-0.00007860000000000,-0.00000002800000000,0.00000001670000000,0.00007800000000000,0.00013700000000000,-0.00001380000000000,-0.00017300000000000,0.19400000000000000,0.00065000000000000,-0.19700000000000000,0.00011600000000000,0.00076200000000000,0.54800000000000000,0.67100000000000000
216000.00000000000000000,-0.00010800000000000,-0.00009300000000000,-0.00007850000000000,-0.00000002760000000,0.00000000765000000,0.00007800000000000,0.00013700000000000,-0.00001380000000000,-0.00017300000000000,0.19400000000000000,0.00065000000000000,-0.19700000000000000,0.00011100000000000,0.00075900000000000,0.54800000000000000,0.67200000000000000
216000.00000000000000000,-0.00010800000000000,-0.00009310000000000,-0.00007860000000000,-0.00000002760000000,0.00000000805000000,0.00007800000000000,0.00013800000000000,-0.00001380000000000,-0.00017300000000000,0.19400000000000000,0.00065100000000000,-0.19700000000000000,0.00011200000000000,0.00075900000000000,0.54800000000000000,0.67200000000000000
216000.00000000000000000,-0.00010800000000000,-0.00009310000000000,-0.00007860000000000,-0.00000002810000000,0.00000001830000000,0.00007800000000000,0.00013800000000000,-0.00001390000000000,-0.00017300000000000,0.19400000000000000,0.00065100000000000,-0.19700000000000000,0.00011700000000000,0.00076300000000000,0.54800000000000000,0.67200000000000000
216000.00000000000000000,-0.00010800000000000,-0.00009320000000000,-0.00007870000000000,-0.00000002830000000,0.00000002070000000,0.00007810000000000,0.00013800000000000,-0.00001390000000000,-0.00017300000000000,0.19400000000000000,0.00065100000000000,-0.19700000000000000,0.00011800000000000,0.00076300000000000,0.54900000000000000,0.67300000000000000
216000.00000000000000000,-0.00010800000000000,-0.00009320000000000,-0.00007870000000000,-0.00000002780000000,0.00000001220000000,0.00007810000000000,0.00013800000000000,-0.00001390000000000,-0.00017300000000000,0.19500000000000000,0.00065100000000000,-0.19800000000000000,0.00011500000000000,0.00076100000000000,0.54900000000000000,0.67300000000000000
216000.00000000000000000,-0.00010800000000000,-0.00009320000000000,-0.00007870000000000,-0.00000002760000000,0.00000000861000000,0.00007810000000000,0.00013800000000000,-0.00001390000000000,-0.00017300000000000,0.19500000000000000,0.00065200000000000,-0.19800000000000000,0.00011300000000000,0.00076000000000000,0.54900000000000000,0.67300000000000000
216000.00000000000000000,-0.00010800000000000,-0.00009330000000000,-0.00007870000000000,-0.00000002790000000,0.00000001600000000,0.00007810000000000,0.00013800000000000,-0.00001400000000000,-0.00017300000000000,0.19500000000000000,0.00065200000000000,-0.19800000000000000,0.00011700000000000,0.00076300000000000,0.54900000000000000,0.67400000000000000
217000.00000000000000000,-0.00010800000000000,-0.00009330000000000,-0.00007880000000000,-0.00000002830000000,0.00000002410000000,0.00007810000000000,0.00013800000000000,-0.00001400000000000,-0.00017300000000000,0.19500000000000000,0.00065200000000000,-0.19800000000000000,0.00012100000000000,0.00076500000000000,0.55000000000000000,0.67400000000000000
217000.00000000000000000,-0.00010800000000000,-0.00009340000000000,-0.00007880000000000,-0.00000002820000000,0.00000002050000000,0.00007810000000000,0.00013800000000000,-0.00001400000000000,-0.00017300000000000,0.19500000000000000,0.00065300000000000,-0.19800000000000000,0.00011900000000000,0.00076300000000000,0.55000000000000000,0.67400000000000000
217000.00000000000000000,-0.00010800000000000,-0.00009340000000000,-0.00007870000000000,-0.00000002780000000,0.00000000987000000,0.00007810000000000,0.00013800000000000,-0.00001400000000000,-0.00017300000000000,0.19600000000000000,0.00065200000000000,-0.19900000000000000,0.00011300000000000,0.00075900000000000,0.55000000000000000,0.67500000000000000
217000.00000000000000000,-0.00010800000000000,-0.00009340000000000,-0.00007880000000000,-0.00000002790000000,0.00000000914000000,0.00007810000000000,0.00013800000000000,-0.00001400000000000,-0.00017300000000000,0.19600000000000000,0.00065300000000000,-0.19900000000000000,0.00011300000000000,0.00075900000000000,0.55000000000000000,0.67500000000000000
217000.00000000000000000,-0.00010800000000000,-0.00009340000000000,-0.00007880000000000,-0.00000002810000000,0.00000001670000000,0.00007820000000000,0.00013800000000000,-0.00001410000000000,-0.00017300000000000,0.19600000000000000,0.00065300000000000,-0.19900000000000000,0.00011700000000000,0.00076200000000000,0.55000000000000000,0.67500000000000000
217000.00000000000000000,-0.00010800000000000,-0.00009350000000000,-0.00007880000000000,-0.00000002840000000,0.00000002190000000,0.00007820000000000,0.00013800000000000,-0.00001410000000000,-0.00017300000000000,0.19600000000000000,0.00065300000000000,-0.19900000000000000,0.00012000000000000,0.00076400000000000,0.55100000000000000,0.67600000000000000
217000.00000000000000000,-0.00010900000000000,-0.00009350000000000,-0.00007880000000000,-0.00000002800000000,0.00000001410000000,0.00007820000000000,0.00013800000000000,-0.00001410000000000,-0.00017300000000000,0.19600000000000000,0.00065300000000000,-0.19900000000000000,0.00011600000000000,0.00076200000000000,0.55100000000000000,0.67600000000000000
217000.00000000000000000,-0.00010900000000000,-0.00009350000000000,-0.00007880000000000,-0.00000002740000000,0.00000000460000000,0.00007820000000000,0.00013800000000000,-0.00001410000000000,-0.00017300000000000,0.19700000000000000,0.00065300000000000,-0.20000000000000000,0.00011200000000000,0.00075800000000000,0.55100000000000000,0.67600000000000000
217000.00000000000000000,-0.00010900000000000,-0.00009360000000000,-0.00007890000000000,-0.00000002780000000,0.00000001110000000,0.00007820000000000,0.00013800000000000,-0.00001410000000000,-0.00017300000000000,0.19700000000000000,0.00065400000000000,-0.20000000000000000,0.00011500000000000,0.00076100000000000,0.55100000000000000,0.67600000000000000
217000.00000000000000000,-0.00010900000000000,-0.00009360000000000,-0.00007890000000000,-0.00000002820000000,0.00000001930000000,0.00007820000000000,0.00013800000000000,-0.00001420000000000,-0.00017300000000000,0.19700000000000000,0.00065400000000000,-0.20000000000000000,0.00012000000000000,0.00076400000000000,0.55200000000000000,0.67700000000000000
218000.00000000000000000,-0.00010900000000000,-0.00009370000000000,-0.00007890000000000,-0.00000002810000000,0.00000001870000000,0.00007820000000000,0.00013800000000000,-0.00001420000000000,-0.00017300000000000,0.19700000000000000,0.00065500000000000,-0.20000000000000000,0.00012000000000000,0.00076400000000000,0.55200000000000000,0.67700000000000000
218000.00000000000000000,-0.00010900000000000,-0.00009370000000000,-0.00007890000000000,-0.00000002790000000,0.00000001130000000,0.00007830000000000,0.00013800000000000,-0.00001420000000000,-0.00017300000000000,0.19700000000000000,0.00065400000000000,-0.20000000000000000,0.00011600000000000,0.00076100000000000,0.55200000000000000,0.67700000000000000
218000.00000000000000000,-0.00010900000000000,-0.00009370000000000,-0.00007890000000000,-0.00000002770000000,0.00000000845000000,0.00007830000000000,0.00013800000000000,-0.00001420000000000,-0.00017400000000000,0.19800000000000000,0.00065500000000000,-0.20100000000000000,0.00011400000000000,0.00076000000000000,0.55200000000000000,0.67800000000000000
218000.00000000000000000,-0.00010900000000000,-0.00009370000000000,-0.00007900000000000,-0.00000002810000000,0.00000001680000000,0.00007830000000000,0.00013800000000000,-0.00001420000000000,-0.00017400000000000,0.19800000000000000,0.00065500000000000,-0.20100000000000000,0.00011900000000000,0.00076200000000000,0.55200000000000000,0.67800000000000000
218000.00000000000000000,-0.00010900000000000,-0.00009380000000000,-0.00007900000000000,-0.00000002840000000,0.00000002270000000,0.00007830000000000,0.00013800000000000,-0.00001430000000000,-0.00017400000000000,0.19800000000000000,0.00065500000000000,-0.20100000000000000,0.00012200000000000,0.00076500000000000,0.55300000000000000,0.67800000000000000
218000.00000000000000000,-0.00010900000000000,-0.00009380000000000,-0.00007900000000000,-0.00000002810000000,0.00000001800000000,0.00007830000000000,0.00013800000000000,-0.00001430000000000,-0.00017400000000000,0.19800000000000000,0.00065600000000000,-0.20100000000000000,0.00012000000000000,0.00076400000000000,0.55300000000000000,0.67900000000000000
218000.00000000000000000,-0.00010900000000000,-0.00009380000000000,-0.00007900000000000,-0.00000002770000000,0.00000001010000000,0.00007830000000000,0.00013800000000000,-0.00001430000000000,-0.00017400000000000,0.19800000000000000,0.00065600000000000,-0.20100000000000000,0.00011600000000000,0.00076100000000000,0.55300000000000000,0.67900000000000000
218000.00000000000000000,-0.00010900000000000,-0.00009390000000000,-0.00007910000000000,-0.00000002780000000,0.00000001310000000,0.00007830000000000,0.00013800000000000,-0.00001430000000000,-0.00017400000000000,0.19900000000000000,0.00065600000000000,-0.20100000000000000,0.00011800000000000,0.00076200000000000,0.55300000000000000,0.67900000000000000
218000.00000000000000000,-0.00010900000000000,-0.00009390000000000,-0.00007910000000000,-0.00000002820000000,0.00000002010000000,0.00007830000000000,0.00013800000000000,-0.00001430000000000,-0.00017400000000000,0.19900000000000000,0.00065600000000000,-0.20200000000000000,0.00012100000000000,0.00076400000000000,0.55300000000000000,0.68000000000000000
218000.00000000000000000,-0.00010900000000000,-0.00009400000000000,-0.00007910000000000,-0.00000002810000000,0.00000001840000000,0.00007840000000000,0.00013800000000000,-0.00001440000000000,-0.00017400000000000,0.19900000000000000,0.00065700000000000,-0.20200000000000000,0.00012100000000000,0.00076400000000000,0.55400000000000000,0.68000000000000000
219000.00000000000000000,-0.00010900000000000,-0.00009400000000000,-0.00007910000000000,-0.00000002780000000,0.00000001110000000,0.00007840000000000,0.00013800000000000,-0.00001430000000000,-0.00017400000000000,0.19900000000000000,0.00065600000000000,-0.20200000000000000,0.00011700000000000,0.00076100000000000,0.55400000000000000,0.68000000000000000
219000.00000000000000000,-0.00010900000000000,-0.00009400000000000,-0.00007910000000000,-0.00000002770000000,0.00000000792000000,0.00007840000000000,0.00013800000000000,-0.00001430000000000,-0.00017400000000000,0.19900000000000000,0.00065600000000000,-0.20200000000000000,0.00011500000000000,0.00076000000000000,0.55400000000000000,0.68100000000000000
219000.00000000000000000,-0.00010900000000000,-0.00009400000000000,-0.00007920000000000,-0.00000002810000000,0.00000001470000000,0.00007840000000000,0.00013800000000000,-0.00001440000000000,-0.00017400000000000,0.20000000000000000,0.00065700000000000,-0.20200000000000000,0.00011900000000000,0.00076200000000000,0.55400000000000000,0.68100000000000000
219000.00000000000000000,-0.00010900000000000,-0.00009410000000000,-0.00007920000000000,-0.00000002840000000,0.00000001960000000,0.00007840000000000,0.00013800000000000,-0.00001440000000000,-0.00017400000000000,0.20000000000000000,0.00065700000000000,-0.20300000000000000,0.00012100000000000,0.00076400000000000,0.55500000000000000,0.68100000000000000
219000.00000000000000000,-0.00010900000000000,-0.00009410000000000,-0.00007920000000000,-0.00000002810000000,0.00000001380000000,0.00007840000000000,0.00013800000000000,-0.00001440000000000,-0.00017400000000000,0.20000000000000000,0.00065700000000000,-0.20300000000000000,0.00011800000000000,0.00076200000000000,0.55500000000000000,0.68200000000000000
219000.00000000000000000,-0.00010900000000000,-0.00009410000000000,-0.00007920000000000,-0.00000002780000000,0.00000000877000000,0.00007840000000000,0.00013800000000000,-0.00001440000000000,-0.00017400000000000,0.20000000000000000,0.00065700000000000,-0.20300000000000000,0.00011600000000000,0.00076000000000000,0.55500000000000000,0.68200000000000000
219000.00000000000000000,-0.00010900000000000,-0.00009420000000000,-0.00007930000000000,-0.00000002800000000,0.00000001320000000,0.00007850000000000,0.00013800000000000,-0.00001450000000000,-0.00017400000000000,0.20000000000000000,0.00065800000000000,-0.20300000000000000,0.00011900000000000,0.00076200000000000,0.55500000000000000,0.68200000000000000
219000.00000000000000000,-0.00011000000000000,-0.00009420000000000,-0.00007930000000000,-0.00000002830000000,0.00000002030000000,0.00007850000000000,0.00013800000000000,-0.00001450000000000,-0.00017400000000000,0.20100000000000000,0.00065800000000000,-0.20300000000000000,0.00012300000000000,0.00076500000000000,0.55500000000000000,0.68200000000000000
219000.00000000000000000,-0.00011000000000000,-0.00009430000000000,-0.00007930000000000,-0.00000002820000000,0.00000001970000000,0.00007850000000000,0.00013800000000000,-0.00001450000000000,-0.00017400000000000,0.20100000000000000,0.00065900000000000,-0.20400000000000000,0.00012300000000000,0.00076500000000000,0.55600000000000000,0.68300000000000000
219000.00000000000000000,-0.00011000000000000,-0.00009430000000000,-0.00007930000000000,-0.00000002780000000,0.00000001090000000,0.00007850000000000,0.00013800000000000,-0.00001450000000000,-0.00017400000000000,0.20100000000000000,0.00065800000000000,-0.20400000000000000,0.00011800000000000,0.00076200000000000,0.55600000000000000,0.68300000000000000
220000.00000000000000000,-0.00011000000000000,-0.00009430000000000,-0.00007930000000000,-0.00000002770000000,0.00000000806000000,0.00007850000000000,0.00013800000000000,-0.00001450000000000,-0.00017400000000000,0.20100000000000000,0.00065900000000000,-0.20400000000000000,0.00011700000000000,0.00076100000000000,0.55600000000000000,0.68300000000000000
220000.00000000000000000,-0.00011000000000000,-0.00009440000000000,-0.00007940000000000,-0.00000002810000000,0.00000001560000000,0.00007850000000000,0.00013900000000000,-0.00001460000000000,-0.00017500000000000,0.20100000000000000,0.00065900000000000,-0.20400000000000000,0.00012100000000000,0.00076400000000000,0.55600000000000000,0.68400000000000000
220000.00000000000000000,-0.00011000000000000,-0.00009440000000000,-0.00007940000000000,-0.00000002830000000,0.00000001930000000,0.00007850000000000,0.00013900000000000,-0.00001460000000000,-0.00017500000000000,0.20100000000000000,0.00065900000000000,-0.20400000000000000,0.00012300000000000,0.00076500000000000,0.55700000000000000,0.68400000000000000
220000.00000000000000000,-0.00011000000000000,-0.00009440000000000,-0.00007940000000000,-0.00000002790000000,0.00000001340000000,0.00007850000000000,0.00013900000000000,-0.00001460000000000,-0.00017500000000000,0.20200000000000000,0.00065900000000000,-0.20500000000000000,0.00012000000000000,0.00076300000000000,0.55700000000000000,0.68400000000000000
220000.00000000000000000,-0.00011000000000000,-0.00009440000000000,-0.00007940000000000,-0.00000002750000000,0.00000000546000000,0.00007860000000000,0.00013900000000000,-0.00001460000000000,-0.00017500000000000,0.20200000000000000,0.00065900000000000,-0.20500000000000000,0.00011600000000000,0.00076100000000000,0.55700000000000000,0.68500000000000000
220000.00000000000000000,-0.00011000000000000,-0.00009450000000000,-0.00007940000000000,-0.00000002770000000,0.00000000901000000,0.00007860000000000,0.00013900000000000,-0.00001460000000000,-0.00017500000000000,0.20200000000000000,0.00066000000000000,-0.20500000000000000,0.00011800000000000,0.00076200000000000,0.55700000000000000,0.68500000000000000
220000.00000000000000000,-0.00011000000000000,-0.00009460000000000,-0.00007950000000000,-0.00000002810000000,0.00000001870000000,0.00007860000000000,0.00013900000000000,-0.00001470000000000,-0.00017500000000000,0.20200000000000000,0.00066000000000000,-0.20500000000000000,0.00012400000000000,0.00076600000000000,0.55700000000000000,0.68500000000000000
220000.00000000000000000,-0.00011000000000000,-0.00009460000000000,-0.00007950000000000,-0.00000002800000000,0.00000001750000000,0.00007860000000000,0.00013900000000000,-0.00001470000000000,-0.00017500000000000,0.20200000000000000,0.00066100000000000,-0.20500000000000000,0.00012400000000000,0.00076600000000000,0.55800000000000000,0.68600000000000000
220000.00000000000000000,-0.00011000000000000,-0.00009460000000000,-0.00007950000000000,-0.00000002770000000,0.00000001040000000,0.00007860000000000,0.00013900000000000,-0.00001470000000000,-0.00017500000000000,0.20300000000000000,0.00066100000000000,-0.20600000000000000,0.00012000000000000,0.00076300000000000,0.55800000000000000,0.68600000000000000
220000.00000000000000000,-0.00011000000000000,-0.00009460000000000,-0.00007950000000000,-0.00000002760000000,0.00000000649000000,0.00007860000000000,0.00013900000000000,-0.00001470000000000,-0.00017500000000000,0.20300000000000000,0.00066100000000000,-0.20600000000000000,0.00011800000000000,0.00076200000000000,0.55800000000000000,0.68600000000000000
221000.00000000000000000,-0.00011000000000000,-0.00009470000000000,-0.00007960000000000,-0.00000002780000000,0.00000001220000000,0.00007860000000000,0.00013900000000000,-0.00001470000000000,-0.00017500000000000,0.20300000000000000,0.00066100000000000,-0.20600000000000000,0.00012100000000000,0.00076300000000000,0.55800000000000000,0.68700000000000000
221000.00000000000000000,-0.00011000000000000,-0.00009470000000000,-0.00007960000000000,-0.00000002830000000,0.00000001950000000,0.00007870000000000,0.00013900000000000,-0.00001480000000000,-0.00017500000000000,0.20300000000000000,0.00066100000000000,-0.20600000000000000,0.00012500000000000,0.00076600000000000,0.55900000000000000,0.68700000000000000
221000.00000000000000000,-0.00011000000000000,-0.00009470000000000,-0.00007960000000000,-0.00000002800000000,0.00000001340000000,0.00007870000000000,0.00013900000000000,-0.00001480000000000,-0.00017500000000000,0.20300000000000000,0.00066100000000000,-0.20600000000000000,0.00012200000000000,0.00076400000000000,0.55900000000000000,0.68700000000000000
221000.00000000000000000,-0.00011000000000000,-0.00009470000000000,-0.00007960000000000,-0.00000002760000000,0.00000000542000000,0.00007870000000000,0.00013900000000000,-0.00001480000000000,-0.00017500000000000,0.20400000000000000,0.00066100000000000,-0.20700000000000000,0.00011800000000000,0.00076200000000000,0.55900000000000000,0.68800000000000000
221000.00000000000000000,-0.00011000000000000,-0.00009480000000000,-0.00007960000000000,-0.00000002770000000,0.00000000677000000,0.00007870000000000,0.00013900000000000,-0.00001480000000000,-0.00017500000000000,0.20400000000000000,0.00066200000000000,-0.20700000000000000,0.00011900000000000,0.00076200000000000,0.55900000000000000,0.68800000000000000
221000.00000000000000000,-0.00011000000000000,-0.00009480000000000,-0.00007970000000000,-0.00000002790000000,0.00000001300000000,0.00007870000000000,0.00013900000000000,-0.00001480000000000,-0.00017500000000000,0.20400000000000000,0.00066200000000000,-0.20700000000000000,0.00012200000000000,0.00076400000000000,0.55900000000000000,0.68800000000000000
221000.00000000000000000,-0.00011000000000000,-0.00009490000000000,-0.00007970000000000,-0.00000002800000000,0.00000001500000000,0.00007870000000000,0.00013900000000000,-0.00001490000000000,-0.00017500000000000,0.20400000000000000,0.00066300000000000,-0.20700000000000000,0.00012400000000000,0.00076600000000000,0.56000000000000000,0.68800000000000000
221000.00000000000000000,-0.00011000000000000,-0.00009490000000000,-0.00007970000000000,-0.00000002760000000,0.00000000780000000,0.00007870000000000,0.00013900000000000,-0.00001490000000000,-0.00017500000000000,0.20400000000000000,0.00066300000000000,-0.20700000000000000,0.00012000000000000,0.00076400000000000,0.56000000000000000,0.68900000000000000
221000.00000000000000000,-0.00011000000000000,-0.00009490000000000,-0.00007970000000000,-0.00000002740000000,0.00000000314000000,0.00007870000000000,0.00013900000000000,-0.00001490000000000,-0.00017500000000000,0.20500000000000000,0.00066300000000000,-0.20800000000000000,0.00011800000000000,0.00076200000000000,0.56000000000000000,0.68900000000000000
221000.00000000000000000,-0.00011100000000000,-0.00009500000000000,-0.00007980000000000,-0.00000002770000000,0.00000000843000000,0.00007880000000000,0.00013900000000000,-0.00001490000000000,-0.00017500000000000,0.20500000000000000,0.00066300000000000,-0.20800000000000000,0.00012100000000000,0.00076400000000000,0.56000000000000000,0.68900000000000000
222000.00000000000000000,-0.00011100000000000,-0.00009490000000000,-0.00007970000000000,-0.00000002710000000,-0.00000000502000000,0.00007880000000000,0.00013900000000000,-0.00001480000000000,-0.00017500000000000,0.20500000000000000,0.00066200000000000,-0.20800000000000000,0.00011400000000000,0.00076100000000000,0.56000000000000000,0.69000000000000000
222000.00000000000000000,-0.00011000000000000,-0.00009490000000000,-0.00007960000000000,-0.00000002650000000,-0.00000001300000000,0.00007880000000000,0.00013900000000000,-0.00001480000000000,-0.00017500000000000,0.20500000000000000,0.00066200000000000,-0.20800000000000000,0.00011000000000000,0.00075900000000000,0.56100000000000000,0.69000000000000000
222000.00000000000000000,-0.00011100000000000,-0.00009500000000000,-0.00007970000000000,-0.00000002920000000,0.00000001800000000,0.00007880000000000,0.00013900000000000,-0.00001490000000000,-0.00017500000000000,0.20500000000000000,0.00066300000000000,-0.20800000000000000,0.00012000000000000,0.00076800000000000,0.56100000000000000,0.69000000000000000
222000.00000000000000000,-0.00011100000000000,-0.00009520000000000,-0.00007990000000000,-0.00000003210000000,0.00000007430000000,0.00007880000000000,0.00013900000000000,-0.00001510000000000,-0.00017600000000000,0.20600000000000000,0.00066500000000000,-0.20900000000000000,0.00014900000000000,0.00078900000000000,0.56100000000000000,0.69100000000000000
222000.00000000000000000,-0.00011100000000000,-0.00009520000000000,-0.00007990000000000,-0.00000002770000000,0.00000002470000000,0.00007880000000000,0.00013900000000000,-0.00001510000000000,-0.00017600000000000,0.20600000000000000,0.00066500000000000,-0.20900000000000000,0.00013400000000000,0.00076700000000000,0.56100000000000000,0.69100000000000000
222000.00000000000000000,-0.00011100000000000,-0.00009520000000000,-0.00007990000000000,-0.00000002540000000,-0.00000001400000000,0.00007880000000000,0.00013900000000000,-0.00001500000000000,-0.00017600000000000,0.20600000000000000,0.00066400000000000,-0.20900000000000000,0.00011700000000000,0.00075300000000000,0.56200000000000000,0.69100000000000000
222000.00000000000000000,-0.00011100000000000,-0.00009520000000000,-0.00007990000000000,-0.00000002740000000,0.00000000803000000,0.00007890000000000,0.00013900000000000,-0.00001500000000000,-0.00017600000000000,0.20600000000000000,0.00066500000000000,-0.20900000000000000,0.00012300000000000,0.00076500000000000,0.56200000000000000,0.69200000000000000
222000.00000000000000000,-0.00011100000000000,-0.00009530000000000,-0.00007990000000000,-0.00000002810000000,0.00000001790000000,0.00007890000000000,0.00013900000000000,-0.00001510000000000,-0.00017600000000000,0.20600000000000000,0.00066500000000000,-0.20900000000000000,0.00012700000000000,0.00076600000000000,0.56200000000000000,0.69200000000000000
222000.00000000000000000,-0.00011100000000000,-0.00009540000000000,-0.00008000000000000,-0.00000002990000000,0.00000004590000000,0.00007890000000000,0.00013900000000000,-0.00001520000000000,-0.00017600000000000,0.20700000000000000,0.00066600000000000,-0.21000000000000000,0.00014000000000000,0.00077900000000000,0.56200000000000000,0.69200000000000000
222000.00000000000000000,-0.00011100000000000,-0.00009530000000000,-0.00007990000000000,-0.00000002700000000,-0.00000000159000000,0.00007890000000000,0.00013900000000000,-0.00001500000000000,-0.00017600000000000,0.20700000000000000,0.00066500000000000,-0.21000000000000000,0.00011700000000000,0.00076300000000000,0.56200000000000000,0.69300000000000000
223000.00000000000000000,-0.00011100000000000,-0.00009520000000000,-0.00007980000000000,-0.00000002500000000,-0.00000003730000000,0.00007890000000000,0.00013900000000000,-0.00001500000000000,-0.00017600000000000,0.20700000000000000,0.00066400000000000,-0.21000000000000000,0.00010000000000000,0.00075000000000000,0.56300000000000000,0.69300000000000000
223000.00000000000000000,-0.00011100000000000,-0.00009530000000000,-0.00007990000000000,-0.00000002590000000,-0.00000001840000000,0.00007890000000000,0.00013900000000000,-0.00001510000000000,-0.00017600000000000,0.20700000000000000,0.00066500000000000,-0.21000000000000000,0.00011200000000000,0.00075600000000000,0.56300000000000000,0.69300000000000000
223000.00000000000000000,-0.00011100000000000,-0.00009540000000000,-0.00008000000000000,-0.00000002710000000,0.00000000024500000,0.00007890000000000,0.00013900000000000,-0.00001510000000000,-0.00017600000000000,0.20700000000000000,0.00066600000000000,-0.21000000000000000,0.00011900000000000,0.00076000000000000,0.56300000000000000,0.69300000000000000
223000.00000000000000000,-0.00011100000000000,-0.00009540000000000,-0.00008000000000000,-0.00000002950000000,0.00000003030000000,0.00007890000000000,0.00013900000000000,-0.00001520000000000,-0.00017600000000000,0.20800000000000000,0.00066600000000000,-0.21100000000000000,0.00012900000000000,0.00077400000000000,0.56300000000000000,0.69400000000000000
223000.00000000000000000,-0.00011100000000000,-0.00009540000000000,-0.00008000000000000,-0.00000002830000000,0.00000000529000000,0.00007900000000000,0.00013900000000000,-0.00001510000000000,-0.00017600000000000,0.20800000000000000,0.00066500000000000,-0.21100000000000000,0.00011600000000000,0.00076400000000000,0.56300000000000000,0.69400000000000000
223000.00000000000000000,-0.00011100000000000,-0.00009540000000000,-0.00008000000000000,-0.00000002640000000,-0.00000001330000000,0.00007900000000000,0.00013900000000000,-0.00001510000000000,-0.00017600000000000,0.20800000000000000,0.00066600000000000,-0.21100000000000000,0.00011100000000000,0.00075400000000000,0.56400000000000000,0.69400000000000000
223000.00000000000000000,-0.00011100000000000,-0.00009560000000000,-0.00008020000000000,-0.00000002850000000,0.00000003030000000,0.00007900000000000,0.00013900000000000,-0.00001530000000000,-0.00017600000000000,0.20800000000000000,0.00066700000000000,-0.21100000000000000,0.00013500000000000,0.00076800000000000,0.56400000000000000,0.69500000000000000
223000.00000000000000000,-0.00011100000000000,-0.00009570000000000,-0.00008020000000000,-0.00000002960000000,0.00000004270000000,0.00007900000000000,0.00013900000000000,-0.00001530000000000,-0.00017600000000000,0.20800000000000000,0.00066800000000000,-0.21100000000000000,0.00013800000000000,0.00077100000000000,0.56400000000000000,0.69500000000000000
223000.00000000000000000,-0.00011100000000000,-0.00009570000000000,-0.00008020000000000,-0.00000002860000000,0.00000002690000000,0.00007900000000000,0.00014000000000000,-0.00001530000000000,-0.00017600000000000,0.20900000000000000,0.00066800000000000,-0.21200000000000000,0.00013200000000000,0.00076700000000000,0.56400000000000000,0.69500000000000000
223000.00000000000000000,-0.00011100000000000,-0.00009560000000000,-0.00008010000000000,-0.00000002860000000,0.00000001810000000,0.00007900000000000,0.00014000000000000,-0.00001520000000000,-0.00017600000000000,0.20900000000000000,0.00066700000000000,-0.21200000000000000,0.00012400000000000,0.00076600000000000,0.56500000000000000,0.69600000000000000
224000.00000000000000000,-0.00011200000000000,-0.00009570000000000,-0.00008010000000000,-0.00000002840000000,0.00000001620000000,0.00007900000000000,0.00014000000000000,-0.00001520000000000,-0.00017600000000000,0.20900000000000000,0.00066700000000000,-0.21200000000000000,0.00012400000000000,0.00076400000000000,0.56500000000000000,0.69600000000000000
224000.00000000000000000,-0.00011200000000000,-0.00009580000000000,-0.00008030000000000,-0.00000002870000000,0.00000003210000000,0.00007900000000000,0.00014000000000000,-0.00001540000000000,-0.00017700000000000,0.20900000000000000,0.00066900000000000,-0.21200000000000000,0.00013700000000000,0.00076900000000000,0.56500000000000000,0.69600000000000000
224000.00000000000000000,-0.00011200000000000,-0.00009580000000000,-0.00008020000000000,-0.00000002730000000,0.00000000785000000,0.00007910000000000,0.00014000000000000,-0.00001530000000000,-0.00017700000000000,0.20900000000000000,0.00066800000000000,-0.21200000000000000,0.00012400000000000,0.00076100000000000,0.56500000000000000,0.69700000000000000
224000.00000000000000000,-0.00011200000000000,-0.00009570000000000,-0.00008010000000000,-0.00000002610000000,-0.00000001860000000,0.00007910000000000,0.00014000000000000,-0.00001520000000000,-0.00017600000000000,0.21000000000000000,0.00066700000000000,-0.21300000000000000,0.00011000000000000,0.00075400000000000,0.56500000000000000,0.69700000000000000
224000.00000000000000000,-0.00011200000000000,-0.00009570000000000,-0.00008020000000000,-0.00000002730000000,-0.00000000614000000,0.00007910000000000,0.00014000000000000,-0.00001530000000000,-0.00017700000000000,0.21000000000000000,0.00066800000000000,-0.21300000000000000,0.00011400000000000,0.00076200000000000,0.56600000000000000,0.69700000000000000
224000.00000000000000000,-0.00011200000000000,-0.00009580000000000,-0.00008020000000000,-0.00000002790000000,0.00000000646000000,0.00007910000000000,0.00014000000000000,-0.00001530000000000,-0.00017700000000000,0.21000000000000000,0.00066800000000000,-0.21300000000000000,0.00012000000000000,0.00076400000000000,0.56600000000000000,0.69700000000000000
224000.00000000000000000,-0.00011200000000000,-0.00009590000000000,-0.00008040000000000,-0.00000002830000000,0.00000002290000000,0.00007910000000000,0.00014000000000000,-0.00001540000000000,-0.00017700000000000,0.21000000000000000,0.00066900000000000,-0.21300000000000000,0.00013300000000000,0.00077000000000000,0.56600000000000000,0.69800000000000000
224000.00000000000000000,-0.00011200000000000,-0.00009590000000000,-0.00008030000000000,-0.00000002730000000,-0.00000000007790000,0.00007910000000000,0.00014000000000000,-0.00001540000000000,-0.00017700000000000,0.21000000000000000,0.00066900000000000,-0.21300000000000000,0.00012000000000000,0.00076100000000000,0.56600000000000000,0.69800000000000000
224000.00000000000000000,-0.00011200000000000,-0.00009590000000000,-0.00008030000000000,-0.00000002640000000,-0.00000001370000000,0.00007910000000000,0.00014000000000000,-0.00001540000000000,-0.00017700000000000,0.21100000000000000,0.00066900000000000,-0.21400000000000000,0.00011400000000000,0.00075700000000000,0.56600000000000000,0.69800000000000000
224000.00000000000000000,-0.00011200000000000,-0.00009600000000000,-0.00008040000000000,-0.00000002760000000,0.00000001300000000,0.00007920000000000,0.00014000000000000,-0.00001550000000000,-0.00017700000000000,0.21100000000000000,0.00067000000000000,-0.21400000000000000,0.00012800000000000,0.00076700000000000,0.56700000000000000,0.69900000000000000
225000.00000000000000000,-0.00011200000000000,-0.00009610000000000,-0.00008050000000000,-0.00000002960000000,0.00000003870000000,0.00007920000000000,0.00014000000000000,-0.00001550000000000,-0.00017700000000000,0.21100000000000000,0.00067000000000000,-0.21400000000000000,0.00013800000000000,0.00077400000000000,0.56700000000000000,0.69900000000000000
225000.00000000000000000,-0.00011200000000000,-0.00009620000000000,-0.00008050000000000,-0.00000002960000000,0.00000004280000000,0.00007920000000000,0.00014000000000000,-0.00001560000000000,-0.00017700000000000,0.21100000000000000,0.00067100000000000,-0.21400000000000000,0.00014200000000000,0.00077600000000000,0.56700000000000000,0.69900000000000000
225000.00000000000000000,-0.00011200000000000,-0.00009610000000000,-0.00008040000000000,-0.00000002730000000,0.00000000196000000,0.00007920000000000,0.00014000000000000,-0.00001550000000000,-0.00017700000000000,0.21100000000000000,0.00067000000000000,-0.21400000000000000,0.00012200000000000,0.00076200000000000,0.56700000000000000,0.70000000000000000
225000.00000000000000000,-0.00011200000000000,-0.00009610000000000,-0.00008040000000000,-0.00000002640000000,-0.00000001190000000,0.00007920000000000,0.00014000000000000,-0.00001550000000000,-0.00017700000000000,0.21200000000000000,0.00067000000000000,-0.21500000000000000,0.00011600000000000,0.00075700000000000,0.56700000000000000,0.70000000000000000
225000.00000000000000000,-0.00011200000000000,-0.00009620000000000,-0.00008050000000000,-0.00000002820000000,0.00000002040000000,0.00007920000000000,0.00014000000000000,-0.00001560000000000,-0.00017700000000000,0.21200000000000000,0.00067100000000000,-0.21500000000000000,0.00013300000000000,0.00077000000000000,0.56800000000000000,0.70000000000000000
225000.00000000000000000,-0.00011200000000000,-0.00009620000000000,-0.00008050000000000,-0.00000002860000000,0.00000002180000000,0.00007920000000000,0.00014000000000000,-0.00001560000000000,-0.00017700000000000,0.21200000000000000,0.00067100000000000,-0.21500000000000000,0.00013200000000000,0.00077000000000000,0.56800000000000000,0.70100000000000000
225000.00000000000000000,-0.00011200000000000,-0.00009620000000000,-0.00008050000000000,-0.00000002730000000,0.00000000146000000,0.00007920000000000,0.00014000000000000,-0.00001560000000000,-0.00017700000000000,0.21200000000000000,0.00067100000000000,-0.21500000000000000,0.00012300000000000,0.00076500000000000,0.56800000000000000,0.70100000000000000
225000.00000000000000000,-0.00011200000000000,-0.00009620000000000,-0.00008040000000000,-0.00000002610000000,-0.00000002370000000,0.00007930000000000,0.00014000000000000,-0.00001550000000000,-0.00017700000000000,0.21200000000000000,0.00067000000000000,-0.21500000000000000,0.00010900000000000,0.00075700000000000,0.56800000000000000,0.70100000000000000
225000.00000000000000000,-0.00011200000000000,-0.00009620000000000,-0.00008050000000000,-0.00000002650000000,-0.00000001530000000,0.00007930000000000,0.00014000000000000,-0.00001550000000000,-0.00017700000000000,0.21300000000000000,0.00067100000000000,-0.21600000000000000,0.00011400000000000,0.00075900000000000,0.56900000000000000,0.70200000000000000
225000.00000000000000000,-0.00011300000000000,-0.00009640000000000,-0.00008060000000000,-0.00000002770000000,0.00000001490000000,0.00007930000000000,0.00014000000000000,-0.00001570000000000,-0.00017700000000000,0.21300000000000000,0.00067200000000000,-0.21600000000000000,0.00013300000000000,0.00076900000000000,0.56900000000000000,0.70200000000000000
226000.00000000000000000,-0.00011300000000000,-0.00009640000000000,-0.00008060000000000,-0.00000002800000000,0.00000001370000000,0.00007930000000000,0.00014000000000000,-0.00001570000000000,-0.00017700000000000,0.21300000000000000,0.00067200000000000,-0.21600000000000000,0.00012900000000000,0.00076800000000000,0.56900000000000000,0.70200000000000000
226000.00000000000000000,-0.00011300000000000,-0.00009640000000000,-0.00008060000000000,-0.00000002760000000,0.00000000236000000,0.00007930000000000,0.00014000000000000,-0.00001560000000000,-0.00017700000000000,0.21300000000000000,0.00067200000000000,-0.21600000000000000,0.00012200000000000,0.00076500000000000,0.56900000000000000,0.70200000000000000
226000.00000000000000000,-0.00011300000000000,-0.00009640000000000,-0.00008060000000000,-0.00000002700000000,-0.00000000456000000,0.00007930000000000,0.00014000000000000,-0.00001560000000000,-0.00017700000000000,0.21300000000000000,0.00067200000000000,-0.21600000000000000,0.00012000000000000,0.00076100000000000,0.56900000000000000,0.70300000000000000
226000.00000000000000000,-0.00011300000000000,-0.00009650000000000,-0.00008070000000000,-0.00000002840000000,0.00000001880000000,0.00007930000000000,0.00014000000000000,-0.00001570000000000,-0.00017800000000000,0.21400000000000000,0.00067300000000000,-0.21700000000000000,0.00013100000000000,0.00076700000000000,0.57000000000000000,0.70300000000000000
226000.00000000000000000,-0.00011300000000000,-0.00009660000000000,-0.00008080000000000,-0.00000002930000000,0.00000004240000000,0.00007930000000000,0.00014000000000000,-0.00001590000000000,-0.00017800000000000,0.21400000000000000,0.00067400000000000,-0.21700000000000000,0.00014500000000000,0.00077500000000000,0.57000000000000000,0.70300000000000000
226000.00000000000000000,-0.00011300000000000,-0.00009660000000000,-0.00008070000000000,-0.00000002810000000,0.00000001710000000,0.00007940000000000,0.00014000000000000,-0.00001580000000000,-0.00017800000000000,0.21400000000000000,0.00067300000000000,-0.21700000000000000,0.00013100000000000,0.00076600000000000,0.57000000000000000,0.70400000000000000
226000.00000000000000000,-0.00011300000000000,-0.00009650000000000,-0.00008070000000000,-0.00000002740000000,-0.00000000008580000,0.00007940000000000,0.00014000000000000,-0.00001570000000000,-0.00017800000000000,0.21400000000000000,0.00067300000000000,-0.21700000000000000,0.00012000000000000,0.00076100000000000,0.57000000000000000,0.70400000000000000
226000.00000000000000000,-0.00011300000000000,-0.00009660000000000,-0.00008070000000000,-0.00000002760000000,0.00000000657000000,0.00007940000000000,0.00014000000000000,-0.00001580000000000,-0.00017800000000000,0.21400000000000000,0.00067300000000000,-0.21700000000000000,0.00012500000000000,0.00076400000000000,0.57000000000000000,0.70400000000000000
226000.00000000000000000,-0.00011300000000000,-0.00009660000000000,-0.00008080000000000,-0.00000002830000000,0.00000001860000000,0.00007940000000000,0.00014000000000000,-0.00001580000000000,-0.00017800000000000,0.21500000000000000,0.00067400000000000,-0.21800000000000000,0.00013100000000000,0.00076700000000000,0.57100000000000000,0.70500000000000000
226000.00000000000000000,-0.00011300000000000,-0.00009670000000000,-0.00008080000000000,-0.00000002870000000,0.00000002460000000,0.00007940000000000,0.00014000000000000,-0.00001590000000000,-0.00017800000000000,0.21500000000000000,0.00067400000000000,-0.21800000000000000,0.00013400000000000,0.00077100000000000,0.57100000000000000,0.70500000000000000
227000.00000000000000000,-0.00011300000000000,-0.00009660000000000,-0.00008070000000000,-0.00000002640000000,-0.00000001350000000,0.00007940000000000,0.00014000000000000,-0.00001580000000000,-0.00017800000000000,0.21500000000000000,0.00067300000000000,-0.21800000000000000,0.00011600000000000,0.00075800000000000,0.57100000000000000,0.70500000000000000
227000.00000000000000000,-0.00011300000000000,-0.00009660000000000,-0.00008070000000000,-0.00000002620000000,-0.00000001900000000,0.00007940000000000,0.00014000000000000,-0.00001570000000000,-0.00017800000000000,0.21500000000000000,0.00067300000000000,-0.21800000000000000,0.00011200000000000,0.00075600000000000,0.57100000000000000,0.70600000000000000
227000.00000000000000000,-0.00011300000000000,-0.00009680000000000,-0.00008080000000000,-0.00000002820000000,0.00000001250000000,0.00007950000000000,0.00014000000000000,-0.00001590000000000,-0.00017800000000000,0.21500000000000000,0.00067400000000000,-0.21800000000000000,0.00012800000000000,0.00076700000000000,0.57100000000000000,0.70600000000000000
227000.00000000000000000,-0.00011300000000000,-0.00009680000000000,-0.00008090000000000,-0.00000002820000000,0.00000001650000000,0.00007950000000000,0.00014000000000000,-0.00001590000000000,-0.00017800000000000,0.21600000000000000,0.00067500000000000,-0.21900000000000000,0.00013100000000000,0.00076600000000000,0.57200000000000000,0.70600000000000000
227000.00000000000000000,-0.00011300000000000,-0.00009680000000000,-0.00008090000000000,-0.00000002810000000,0.00000001500000000,0.00007950000000000,0.00014000000000000,-0.00001590000000000,-0.00017800000000000,0.21600000000000000,0.00067500000000000,-0.21900000000000000,0.00013000000000000,0.00076800000000000,0.57200000000000000,0.70600000000000000
227000.00000000000000000,-0.00011300000000000,-0.00009680000000000,-0.00008080000000000,-0.00000002710000000,-0.00000000568000000,0.00007950000000000,0.00014000000000000,-0.00001590000000000,-0.00017800000000000,0.21600000000000000,0.00067500000000000,-0.21900000000000000,0.00011900000000000,0.00076000000000000,0.57200000000000000,0.70700000000000000
227000.00000000000000000,-0.00011300000000000,-0.00009690000000000,-0.00008090000000000,-0.00000002740000000,0.00000000250000000,0.00007950000000000,0.00014100000000000,-0.00001590000000000,-0.00017800000000000,0.21600000000000000,0.00067500000000000,-0.21900000000000000,0.00012400000000000,0.00076200000000000,0.57200000000000000,0.70700000000000000
227000.00000000000000000,-0.00011300000000000,-0.00009700000000000,-0.00008100000000000,-0.00000002910000000,0.00000003300000000,0.00007950000000000,0.00014100000000000,-0.00001610000000000,-0.00017800000000000,0.21600000000000000,0.00067600000000000,-0.21900000000000000,0.00014100000000000,0.00077300000000000,0.57300000000000000,0.70700000000000000
227000.00000000000000000,-0.00011300000000000,-0.00009700000000000,-0.00008100000000000,-0.00000002870000000,0.00000002330000000,0.00007950000000000,0.00014100000000000,-0.00001600000000000,-0.00017800000000000,0.21700000000000000,0.00067600000000000,-0.22000000000000000,0.00013500000000000,0.00076900000000000,0.57300000000000000,0.70800000000000000
227000.00000000000000000,-0.00011300000000000,-0.00009700000000000,-0.00008100000000000,-0.00000002770000000,0.00000000626000000,0.00007950000000000,0.00014100000000000,-0.00001600000000000,-0.00017800000000000,0.21700000000000000,0.00067600000000000,-0.22000000000000000,0.00012700000000000,0.00076600000000000,0.57300000000000000,0.70800000000000000
228000.00000000000000000,-0.00011300000000000,-0.00009700000000000,-0.00008090000000000,-0.00000002690000000,-0.00000000673000000,0.00007960000000000,0.00014100000000000,-0.00001600000000000,-0.00017800000000000,0.21700000000000000,0.00067600000000000,-0.22000000000000000,0.00012100000000000,0.00076200000000000,0.57300000000000000,0.70800000000000000
228000.00000000000000000,-0.00011300000000000,-0.00009710000000000,-0.00008100000000000,-0.00000002740000000,0.00000000382000000,0.00007960000000000,0.00014100000000000,-0.00001600000000000,-0.00017800000000000,0.21700000000000000,0.00067700000000000,-0.22000000000000000,0.00012700000000000,0.00076500000000000,0.57300000000000000,0.70900000000000000
228000.00000000000000000,-0.00011400000000000,-0.00009720000000000,-0.00008110000000000,-0.00000002830000000,0.00000002160000000,0.00007960000000000,0.00014100000000000,-0.00001610000000000,-0.00017900000000000,0.21700000000000000,0.00067700000000000,-0.22000000000000000,0.00013700000000000,0.00077200000000000,0.57400000000000000,0.70900000000000000
228000.00000000000000000,-0.00011400000000000,-0.00009710000000000,-0.00008100000000000,-0.00000002710000000,-0.00000000299000000,0.00007960000000000,0.00014100000000000,-0.00001610000000000,-0.00017900000000000,0.21800000000000000,0.00067700000000000,-0.22100000000000000,0.00012400000000000,0.00076400000000000,0.57400000000000000,0.70900000000000000
228000.00000000000000000,-0.00011400000000000,-0.00009710000000000,-0.00008100000000000,-0.00000002630000000,-0.00000001840000000,0.00007960000000000,0.00014100000000000,-0.00001600000000000,-0.00017900000000000,0.21800000000000000,0.00067600000000000,-0.22100000000000000,0.00011600000000000,0.00076000000000000,0.57400000000000000,0.71000000000000000
228000.00000000000000000,-0.00011400000000000,-0.00009720000000000,-0.00008110000000000,-0.00000002700000000,-0.00000000577000000,0.00007960000000000,0.00014100000000000,-0.00001610000000000,-0.00017900000000000,0.21800000000000000,0.00067700000000000,-0.22100000000000000,0.00012200000000000,0.00076400000000000,0.57400000000000000,0.71000000000000000
228000.00000000000000000,-0.00011400000000000,-0.00009730000000000,-0.00008110000000000,-0.00000002780000000,0.00000001130000000,0.00007960000000000,0.00014100000000000,-0.00001620000000000,-0.00017900000000000,0.21800000000000000,0.00067800000000000,-0.22100000000000000,0.00013200000000000,0.00076800000000000,0.57400000000000000,0.71000000000000000
228000.00000000000000000,-0.00011400000000000,-0.00009730000000000,-0.00008120000000000,-0.00000002840000000,0.00000002120000000,0.00007960000000000,0.00014100000000000,-0.00001620000000000,-0.00017900000000000,0.21800000000000000,0.00067800000000000,-0.22100000000000000,0.00013700000000000,0.00077100000000000,0.57500000000000000,0.71000000000000000
228000.00000000000000000,-0.00011400000000000,-0.00009730000000000,-0.00008110000000000,-0.00000002710000000,-0.00000000358000000,0.00007970000000000,0.00014100000000000,-0.00001610000000000,-0.00017900000000000,0.21900000000000000,0.00067800000000000,-0.22200000000000000,0.00012300000000000,0.00076200000000000,0.57500000000000000,0.71100000000000000
228000.00000000000000000,-0.00011400000000000,-0.00009730000000000,-0.00008110000000000,-0.00000002700000000,-0.00000000458000000,0.00007970000000000,0.00014100000000000,-0.00001610000000000,-0.00017900000000000,0.21900000000000000,0.00067800000000000,-0.22200000000000000,0.00012200000000000,0.00076100000000000,0.57500000000000000,0.71100000000000000
229000.00000000000000000,-0.00011400000000000,-0.00009740000000000,-0.00008120000000000,-0.00000002880000000,0.00000002470000000,0.00007970000000000,0.00014100000000000,-0.00001620000000000,-0.00017900000000000,0.21900000000000000,0.00067900000000000,-0.22200000000000000,0.00013700000000000,0.00077100000000000,0.57500000000000000,0.71100000000000000
229000.00000000000000000,-0.00011400000000000,-0.00009750000000000,-0.00008130000000000,-0.00000002890000000,0.00000002940000000,0.00007970000000000,0.00014100000000000,-0.00001630000000000,-0.00017900000000000,0.21900000000000000,0.00067900000000000,-0.22200000000000000,0.00014000000000000,0.00077000000000000,0.57500000000000000,0.71200000000000000
229000.00000000000000000,-0.00011400000000000,-0.00009750000000000,-0.00008130000000000,-0.00000002820000000,0.00000001830000000,0.00007970000000000,0.00014100000000000,-0.00001630000000000,-0.00017900000000000,0.21900000000000000,0.00067900000000000,-0.22200000000000000,0.00013500000000000,0.00076800000000000,0.57600000000000000,0.71200000000000000
229000.00000000000000000,-0.00011400000000000,-0.00009740000000000,-0.00008120000000000,-0.00000002710000000,-0.00000000576000000,0.00007970000000000,0.00014100000000000,-0.00001620000000000,-0.00017900000000000,0.22000000000000000,0.00067800000000000,-0.22300000000000000,0.00012100000000000,0.00076000000000000,0.57600000000000000,0.71200000000000000
229000.00000000000000000,-0.00011400000000000,-0.00009750000000000,-0.00008120000000000,-0.00000002710000000,-0.00000000258000000,0.00007970000000000,0.00014100000000000,-0.00001620000000000,-0.00017900000000000,0.22000000000000000,0.00067900000000000,-0.22300000000000000,0.00012400000000000,0.00076200000000000,0.57600000000000000,0.71300000000000000
229000.00000000000000000,-0.00011400000000000,-0.00009760000000000,-0.00008140000000000,-0.00000002840000000,0.00000002120000000,0.00007980000000000,0.00014100000000000,-0.00001640000000000,-0.00017900000000000,0.22000000000000000,0.00068000000000000,-0.22300000000000000,0.00013700000000000,0.00077100000000000,0.57600000000000000,0.71300000000000000
229000.00000000000000000,-0.00011400000000000,-0.00009760000000000,-0.00008130000000000,-0.00000002800000000,0.00000001100000000,0.00007980000000000,0.00014100000000000,-0.00001630000000000,-0.00017900000000000,0.22000000000000000,0.00068000000000000,-0.22300000000000000,0.00013100000000000,0.00076700000000000,0.57600000000000000,0.71300000000000000
229000.00000000000000000,-0.00011400000000000,-0.00009760000000000,-0.00008130000000000,-0.00000002670000000,-0.00000000969000000,0.00007980000000000,0.00014100000000000,-0.00001630000000000,-0.00017900000000000,0.22000000000000000,0.00068000000000000,-0.22300000000000000,0.00012200000000000,0.00076200000000000,0.57700000000000000,0.71400000000000000
229000.00000000000000000,-0.00011400000000000,-0.00009760000000000,-0.00008130000000000,-0.00000002640000000,-0.00000001710000000,0.00007980000000000,0.00014100000000000,-0.00001630000000000,-0.00017900000000000,0.22100000000000000,0.00067900000000000,-0.22400000000000000,0.00011800000000000,0.00075900000000000,0.57700000000000000,0.71400000000000000
229000.00000000000000000,-0.00011400000000000,-0.00009770000000000,-0.00008140000000000,-0.00000002750000000,0.00000000251000000,0.00007980000000000,0.00014100000000000,-0.00001640000000000,-0.00017900000000000,0.22100000000000000,0.00068000000000000,-0.22400000000000000,0.00012800000000000,0.00076500000000000,0.57700000000000000,0.71400000000000000
230000.00000000000000000,-0.00011400000000000,-0.00009780000000000,-0.00008150000000000,-0.00000002840000000,0.00000002110000000,0.00007980000000000,0.00014100000000000,-0.00001650000000000,-0.00017900000000000,0.22100000000000000,0.00068100000000000,-0.22400000000000000,0.00013900000000000,0.00077200000000000,0.57700000000000000,0.71400000000000000
230000.00000000000000000,-0.00011400000000000,-0.00009780000000000,-0.00008140000000000,-0.00000002770000000,0.00000000580000000,0.00007980000000000,0.00014100000000000,-0.00001640000000000,-0.00017900000000000,0.22100000000000000,0.00068100000000000,-0.22400000000000000,0.00012900000000000,0.00076600000000000,0.57800000000000000,0.71500000000000000
230000.00000000000000000,-0.00011400000000000,-0.00009780000000000,-0.00008140000000000,-0.00000002700000000,-0.00000000555000000,0.00007980000000000,0.00014100000000000,-0.00001640000000000,-0.00017900000000000,0.22100000000000000,0.00068100000000000,-0.22500000000000000,0.00012400000000000,0.00076300000000000,0.57800000000000000,0.71500000000000000
230000.00000000000000000,-0.00011500000000000,-0.00009780000000000,-0.00008150000000000,-0.00000002740000000,0.00000000305000000,0.00007990000000000,0.00014100000000000,-0.00001650000000000,-0.00018000000000000,0.22200000000000000,0.00068100000000000,-0.22500000000000000,0.00012900000000000,0.00076400000000000,0.57800000000000000,0.71500000000000000
230000.00000000000000000,-0.00011500000000000,-0.00009790000000000,-0.00008150000000000,-0.00000002860000000,0.00000002240000000,0.00007990000000000,0.00014100000000000,-0.00001650000000000,-0.00018000000000000,0.22200000000000000,0.00068200000000000,-0.22500000000000000,0.00013800000000000,0.00077000000000000,0.57800000000000000,0.71600000000000000
230000.00000000000000000,-0.00011500000000000,-0.00009800000000000,-0.00008160000000000,-0.00000002850000000,0.00000002320000000,0.00007990000000000,0.00014100000000000,-0.00001660000000000,-0.00018000000000000,0.22200000000000000,0.00068200000000000,-0.22500000000000000,0.00014000000000000,0.00077000000000000,0.57800000000000000,0.71600000000000000
230000.00000000000000000,-0.00011500000000000,-0.00009790000000000,-0.00008150000000000,-0.00000002720000000,-0.00000000291000000,0.00007990000000000,0.00014100000000000,-0.00001650000000000,-0.00018000000000000,0.22200000000000000,0.00068100000000000,-0.22500000000000000,0.00012500000000000,0.00076200000000000,0.57900000000000000,0.71600000000000000
230000.00000000000000000,-0.00011500000000000,-0.00009790000000000,-0.00008150000000000,-0.00000002720000000,-0.00000000374000000,0.00007990000000000,0.00014100000000000,-0.00001650000000000,-0.00018000000000000,0.22200000000000000,0.00068200000000000,-0.22600000000000000,0.00012400000000000,0.00076200000000000,0.57900000000000000,0.71700000000000000
230000.00000000000000000,-0.00011500000000000,-0.00009800000000000,-0.00008160000000000,-0.00000002790000000,0.00000001140000000,0.00007990000000000,0.00014100000000000,-0.00001660000000000,-0.00018000000000000,0.22300000000000000,0.00068200000000000,-0.22600000000000000,0.00013300000000000,0.00076700000000000,0.57900000000000000,0.71700000000000000
230000.00000000000000000,-0.00011500000000000,-0.00009800000000000,-0.00008160000000000,-0.00000002810000000,0.00000001440000000,0.00007990000000000,0.00014100000000000,-0.00001660000000000,-0.00018000000000000,0.22300000000000000,0.00068300000000000,-0.22600000000000000,0.00013500000000000,0.00076700000000000,0.57900000000000000,0.71700000000000000
231000.00000000000000000,-0.00011500000000000,-0.00009810000000000,-0.00008160000000000,-0.00000002750000000,0.00000000389000000,0.00007990000000000,0.00014100000000000,-0.00001660000000000,-0.00018000000000000,0.22300000000000000,0.00068300000000000,-0.22600000000000000,0.00013000000000000,0.00076500000000000,0.57900000000000000,0.71700000000000000
231000.00000000000000000,-0.00011500000000000,-0.00009800000000000,-0.00008150000000000,-0.00000002650000000,-0.00000001490000000,0.00008000000000000,0.00014100000000000,-0.00001650000000000,-0.00018000000000000,0.22300000000000000,0.00068200000000000,-0.22600000000000000,0.00012000000000000,0.00076000000000000,0.58000000000000000,0.71800000000000000
231000.00000000000000000,-0.00011500000000000,-0.00009810000000000,-0.00008160000000000,-0.00000002740000000,0.00000000000763000,0.00008000000000000,0.00014100000000000,-0.00001660000000000,-0.00018000000000000,0.22300000000000000,0.00068300000000000,-0.22700000000000000,0.00012800000000000,0.00076500000000000,0.58000000000000000,0.71800000000000000
231000.00000000000000000,-0.00011500000000000,-0.00009820000000000,-0.00008170000000000,-0.00000002830000000,0.00000001920000000,0.00008000000000000,0.00014200000000000,-0.00001670000000000,-0.00018000000000000,0.22400000000000000,0.00068400000000000,-0.22700000000000000,0.00013900000000000,0.00077100000000000,0.58000000000000000,0.71800000000000000
231000.00000000000000000,-0.00011500000000000,-0.00009820000000000,-0.00008170000000000,-0.00000002780000000,0.00000000869000000,0.00008000000000000,0.00014200000000000,-0.00001670000000000,-0.00018000000000000,0.22400000000000000,0.00068400000000000,-0.22700000000000000,0.00013400000000000,0.00076700000000000,0.58000000000000000,0.71900000000000000
231000.00000000000000000,-0.00011500000000000,-0.00009820000000000,-0.00008170000000000,-0.00000002710000000,-0.00000000275000000,0.00008000000000000,0.00014200000000000,-0.00001670000000000,-0.00018000000000000,0.22400000000000000,0.00068400000000000,-0.22700000000000000,0.00012800000000000,0.00076500000000000,0.58000000000000000,0.71900000000000000
231000.00000000000000000,-0.00011500000000000,-0.00009820000000000,-0.00008170000000000,-0.00000002690000000,-0.00000000684000000,0.00008000000000000,0.00014200000000000,-0.00001670000000000,-0.00018000000000000,0.22400000000000000,0.00068400000000000,-0.22700000000000000,0.00012500000000000,0.00076300000000000,0.58100000000000000,0.71900000000000000
231000.00000000000000000,-0.00011500000000000,-0.00009830000000000,-0.00008180000000000,-0.00000002810000000,0.00000001360000000,0.00008000000000000,0.00014200000000000,-0.00001670000000000,-0.00018000000000000,0.22400000000000000,0.00068500000000000,-0.22800000000000000,0.00013600000000000,0.00076900000000000,0.58100000000000000,0.72000000000000000
231000.00000000000000000,-0.00011500000000000,-0.00009840000000000,-0.00008180000000000,-0.00000002850000000,0.00000002210000000,0.00008000000000000,0.00014200000000000,-0.00001680000000000,-0.00018000000000000,0.22500000000000000,0.00068500000000000,-0.22800000000000000,0.00014100000000000,0.00077200000000000,0.58100000000000000,0.72000000000000000
231000.00000000000000000,-0.00011500000000000,-0.00009830000000000,-0.00008180000000000,-0.00000002730000000,-0.00000000172000000,0.00008010000000000,0.00014200000000000,-0.00001670000000000,-0.00018000000000000,0.22500000000000000,0.00068400000000000,-0.22800000000000000,0.00012800000000000,0.00076300000000000,0.58100000000000000,0.72000000000000000
232000.00000000000000000,-0.00011500000000000,-0.00009840000000000,-0.00008180000000000,-0.00000002680000000,-0.00000000917000000,0.00008010000000000,0.00014200000000000,-0.00001670000000000,-0.00018000000000000,0.22500000000000000,0.00068400000000000,-0.22800000000000000,0.00012400000000000,0.00076100000000000,0.58100000000000000,0.72100000000000000
232000.00000000000000000,-0.00011500000000000,-0.00009840000000000,-0.00008180000000000,-0.00000002730000000,-0.00000000057000000,0.00008010000000000,0.00014200000000000,-0.00001680000000000,-0.00018000000000000,0.22500000000000000,0.00068500000000000,-0.22800000000000000,0.00012800000000000,0.00076300000000000,0.58200000000000000,0.72100000000000000
232000.00000000000000000,-0.00011500000000000,-0.00009850000000000,-0.00008190000000000,-0.00000002830000000,0.00000001630000000,0.00008010000000000,0.00014200000000000,-0.00001680000000000,-0.00018100000000000,0.22500000000000000,0.00068600000000000,-0.22900000000000000,0.00013700000000000,0.00076800000000000,0.58200000000000000,0.72100000000000000
232000.00000000000000000,-0.00011600000000000,-0.00009850000000000,-0.00008190000000000,-0.00000002810000000,0.00000001320000000,0.00008010000000000,0.00014200000000000,-0.00001680000000000,-0.00018100000000000,0.22600000000000000,0.00068600000000000,-0.22900000000000000,0.00013600000000000,0.00076800000000000,0.58200000000000000,0.72100000000000000
232000.00000000000000000,-0.00011500000000000,-0.00009850000000000,-0.00008180000000000,-0.00000002670000000,-0.00000001220000000,0.00008010000000000,0.00014200000000000,-0.00001680000000000,-0.00018100000000000,0.22600000000000000,0.00068500000000000,-0.22900000000000000,0.00012200000000000,0.00075900000000000,0.58200000000000000,0.72200000000000000
232000.00000000000000000,-0.00011600000000000,-0.00009850000000000,-0.00008190000000000,-0.00000002710000000,-0.00000000547000000,0.00008010000000000,0.00014200000000000,-0.00001680000000000,-0.00018100000000000,0.22600000000000000,0.00068600000000000,-0.22900000000000000,0.00012600000000000,0.00076200000000000,0.58200000000000000,0.72200000000000000
232000.00000000000000000,-0.00011600000000000,-0.00009860000000000,-0.00008200000000000,-0.00000002800000000,0.00000001280000000,0.00008020000000000,0.00014200000000000,-0.00001690000000000,-0.00018100000000000,0.22600000000000000,0.00068600000000000,-0.22900000000000000,0.00013600000000000,0.00076800000000000,0.58300000000000000,0.72200000000000000
232000.00000000000000000,-0.00011600000000000,-0.00009870000000000,-0.00008200000000000,-0.00000002830000000,0.00000001710000000,0.00008020000000000,0.00014200000000000,-0.00001690000000000,-0.00018100000000000,0.22600000000000000,0.00068700000000000,-0.23000000000000000,0.00013900000000000,0.00076900000000000,0.58300000000000000,0.72300000000000000
232000.00000000000000000,-0.00011600000000000,-0.00009870000000000,-0.00008200000000000,-0.00000002770000000,0.00000000630000000,0.00008020000000000,0.00014200000000000,-0.00001690000000000,-0.00018100000000000,0.22700000000000000,0.00068700000000000,-0.23000000000000000,0.00013400000000000,0.00076700000000000,0.58300000000000000,0.72300000000000000
232000.00000000000000000,-0.00011600000000000,-0.00009870000000000,-0.00008190000000000,-0.00000002660000000,-0.00000001250000000,0.00008020000000000,0.00014200000000000,-0.00001690000000000,-0.00018100000000000,0.22700000000000000,0.00068600000000000,-0.23000000000000000,0.00012400000000000,0.00076100000000000,0.58300000000000000,0.72300000000000000
233000.00000000000000000,-0.00011600000000000,-0.00009870000000000,-0.00008200000000000,-0.00000002740000000,0.00000000273000000,0.00008020000000000,0.00014200000000000,-0.00001700000000000,-0.00018100000000000,0.22700000000000000,0.00068700000000000,-0.23000000000000000,0.00013300000000000,0.00076600000000000,0.58300000000000000,0.72400000000000000
233000.00000000000000000,-0.00011600000000000,-0.00009880000000000,-0.00008210000000000,-0.00000002830000000,0.00000001830000000,0.00008020000000000,0.00014200000000000,-0.00001700000000000,-0.00018100000000000,0.22700000000000000,0.00068800000000000,-0.23000000000000000,0.00014100000000000,0.00077100000000000,0.58400000000000000,0.72400000000000000
233000.00000000000000000,-0.00011600000000000,-0.00009880000000000,-0.00008210000000000,-0.00000002750000000,0.00000000490000000,0.00008020000000000,0.00014200000000000,-0.00001700000000000,-0.00018100000000000,0.22700000000000000,0.00068800000000000,-0.23100000000000000,0.00013400000000000,0.00076700000000000,0.58400000000000000,0.72400000000000000
233000.00000000000000000,-0.00011600000000000,-0.00009880000000000,-0.00008200000000000,-0.00000002690000000,-0.00000000716000000,0.00008020000000000,0.00014200000000000,-0.00001700000000000,-0.00018100000000000,0.22800000000000000,0.00068700000000000,-0.23100000000000000,0.00012700000000000,0.00076400000000000,0.58400000000000000,0.72400000000000000
233000.00000000000000000,-0.00011600000000000,-0.00009880000000000,-0.00008200000000000,-0.00000002670000000,-0.00000001150000000,0.00008030000000000,0.00014200000000000,-0.00001700000000000,-0.00018100000000000,0.22800000000000000,0.00068700000000000,-0.23100000000000000,0.00012400000000000,0.00076100000000000,0.58400000000000000,0.72500000000000000
233000.00000000000000000,-0.00011600000000000,-0.00009890000000000,-0.00008210000000000,-0.00000002770000000,0.00000000683000000,0.00008030000000000,0.00014200000000000,-0.00001710000000000,-0.00018100000000000,0.22800000000000000,0.00068800000000000,-0.23100000000000000,0.00013500000000000,0.00076600000000000,0.58400000000000000,0.72500000000000000
233000.00000000000000000,-0.00011600000000000,-0.00009900000000000,-0.00008220000000000,-0.00000002820000000,0.00000001540000000,0.00008030000000000,0.00014200000000000,-0.00001710000000000,-0.00018100000000000,0.22800000000000000,0.00068900000000000,-0.23100000000000000,0.00013900000000000,0.00076900000000000,0.58500000000000000,0.72500000000000000
233000.00000000000000000,-0.00011600000000000,-0.00009890000000000,-0.00008210000000000,-0.00000002720000000,-0.00000000407000000,0.00008030000000000,0.00014200000000000,-0.00001700000000000,-0.00018100000000000,0.22900000000000000,0.00068800000000000,-0.23200000000000000,0.00012800000000000,0.00076200000000000,0.58500000000000000,0.72600000000000000
233000.00000000000000000,-0.00011600000000000,-0.00009900000000000,-0.00008210000000000,-0.00000002690000000,-0.00000000739000000,0.00008030000000000,0.00014200000000000,-0.00001710000000000,-0.00018100000000000,0.22900000000000000,0.00068800000000000,-0.23200000000000000,0.00012600000000000,0.00076200000000000,0.58500000000000000,0.72600000000000000
233000.00000000000000000,-0.00011600000000000,-0.00009900000000000,-0.00008220000000000,-0.00000002760000000,0.00000000374000000,0.00008030000000000,0.00014200000000000,-0.00001710000000000,-0.00018100000000000,0.22900000000000000,0.00068900000000000,-0.23200000000000000,0.00013200000000000,0.00076400000000000,0.58500000000000000,0.72600000000000000
234000.00000000000000000,-0.00011600000000000,-0.00009910000000000,-0.00008230000000000,-0.00000002840000000,0.00000001730000000,0.00008030000000000,0.00014200000000000,-0.00001720000000000,-0.00018100000000000,0.22900000000000000,0.00069000000000000,-0.23200000000000000,0.00014000000000000,0.00076800000000000,0.58500000000000000,0.72700000000000000
234000.00000000000000000,-0.00011600000000000,-0.00009910000000000,-0.00008230000000000,-0.00000002800000000,0.00000001240000000,0.00008030000000000,0.00014200000000000,-0.00001720000000000,-0.00018100000000000,0.22900000000000000,0.00069000000000000,-0.23200000000000000,0.00013800000000000,0.00076800000000000,0.58600000000000000,0.72700000000000000
234000.00000000000000000,-0.00011600000000000,-0.00009910000000000,-0.00008220000000000,-0.00000002700000000,-0.00000000756000000,0.00008040000000000,0.00014200000000000,-0.00001710000000000,-0.00018100000000000,0.23000000000000000,0.00068900000000000,-0.23300000000000000,0.00012700000000000,0.00076200000000000,0.58600000000000000,0.72700000000000000
234000.00000000000000000,-0.00011600000000000,-0.00009920000000000,-0.00008230000000000,-0.00000002710000000,-0.00000000256000000,0.00008040000000000,0.00014200000000000,-0.00001720000000000,-0.00018200000000000,0.23000000000000000,0.00069000000000000,-0.23300000000000000,0.00013100000000000,0.00076400000000000,0.58600000000000000,0.72700000000000000
234000.00000000000000000,-0.00011700000000000,-0.00009930000000000,-0.00008230000000000,-0.00000002790000000,0.00000001050000000,0.00008040000000000,0.00014200000000000,-0.00001720000000000,-0.00018200000000000,0.23000000000000000,0.00069000000000000,-0.23300000000000000,0.00013800000000000,0.00076800000000000,0.58600000000000000,0.72800000000000000
234000.00000000000000000,-0.00011700000000000,-0.00009930000000000,-0.00008230000000000,-0.00000002790000000,0.00000001050000000,0.00008040000000000,0.00014200000000000,-0.00001730000000000,-0.00018200000000000,0.23000000000000000,0.00069100000000000,-0.23300000000000000,0.00013800000000000,0.00076800000000000,0.58600000000000000,0.72800000000000000
234000.00000000000000000,-0.00011700000000000,-0.00009930000000000,-0.00008230000000000,-0.00000002700000000,-0.00000000435000000,0.00008040000000000,0.00014200000000000,-0.00001720000000000,-0.00018200000000000,0.23000000000000000,0.00069000000000000,-0.23300000000000000,0.00013100000000000,0.00076500000000000,0.58700000000000000,0.72800000000000000
234000.00000000000000000,-0.00011700000000000,-0.00009930000000000,-0.00008230000000000,-0.00000002640000000,-0.00000001650000000,0.00008040000000000,0.00014200000000000,-0.00001720000000000,-0.00018200000000000,0.23100000000000000,0.00069000000000000,-0.23400000000000000,0.00012400000000000,0.00076100000000000,0.58700000000000000,0.72900000000000000
234000.00000000000000000,-0.00011700000000000,-0.00009940000000000,-0.00008240000000000,-0.00000002730000000,0.00000000006720000,0.00008040000000000,0.00014200000000000,-0.00001730000000000,-0.00018200000000000,0.23100000000000000,0.00069100000000000,-0.23400000000000000,0.00013300000000000,0.00076600000000000,0.58700000000000000,0.72900000000000000
234000.00000000000000000,-0.00011700000000000,-0.00009940000000000,-0.00008240000000000,-0.00000002800000000,0.00000001120000000,0.00008040000000000,0.00014200000000000,-0.00001730000000000,-0.00018200000000000,0.23100000000000000,0.00069100000000000,-0.23400000000000000,0.00013900000000000,0.00076800000000000,0.58700000000000000,0.72900000000000000
235000.00000000000000000,-0.00011700000000000,-0.00009940000000000,-0.00008240000000000,-0.00000002750000000,0.00000000135000000,0.00008050000000000,0.00014300000000000,-0.00001730000000000,-0.00018200000000000,0.23100000000000000,0.00069100000000000,-0.23400000000000000,0.00013300000000000,0.00076500000000000,0.58700000000000000,0.73000000000000000
235000.00000000000000000,-0.00011700000000000,-0.00009940000000000,-0.00008240000000000,-0.00000002680000000,-0.00000000853000000,0.00008050000000000,0.00014300000000000,-0.00001730000000000,-0.00018200000000000,0.23100000000000000,0.00069100000000000,-0.23400000000000000,0.00012800000000000,0.00076200000000000,0.58800000000000000,0.73000000000000000
235000.00000000000000000,-0.00011700000000000,-0.00009940000000000,-0.00008240000000000,-0.00000002700000000,-0.00000000628000000,0.00008050000000000,0.00014300000000000,-0.00001730000000000,-0.00018200000000000,0.23200000000000000,0.00069100000000000,-0.23500000000000000,0.00012800000000000,0.00076200000000000,0.58800000000000000,0.73000000000000000
235000.00000000000000000,-0.00011700000000000,-0.00009960000000000,-0.00008250000000000,-0.00000002820000000,0.00000001490000000,0.00008050000000000,0.00014300000000000,-0.00001740000000000,-0.00018200000000000,0.23200000000000000,0.00069200000000000,-0.23500000000000000,0.00014000000000000,0.00076800000000000,0.58800000000000000,0.73100000000000000
235000.00000000000000000,-0.00011700000000000,-0.00009960000000000,-0.00008250000000000,-0.00000002830000000,0.00000001680000000,0.00008050000000000,0.00014300000000000,-0.00001740000000000,-0.00018200000000000,0.23200000000000000,0.00069300000000000,-0.23500000000000000,0.00014100000000000,0.00076900000000000,0.58800000000000000,0.73100000000000000
235000.00000000000000000,-0.00011700000000000,-0.00009960000000000,-0.00008250000000000,-0.00000002730000000,-0.00000000193000000,0.00008050000000000,0.00014300000000000,-0.00001740000000000,-0.00018200000000000,0.23200000000000000,0.00069200000000000,-0.23500000000000000,0.00013100000000000,0.00076300000000000,0.58800000000000000,0.73100000000000000
235000.00000000000000000,-0.00011700000000000,-0.00009960000000000,-0.00008250000000000,-0.00000002700000000,-0.00000000591000000,0.00008050000000000,0.00014300000000000,-0.00001740000000000,-0.00018200000000000,0.23200000000000000,0.00069200000000000,-0.23500000000000000,0.00013000000000000,0.00076300000000000,0.58900000000000000,0.73100000000000000
235000.00000000000000000,-0.00011700000000000,-0.00009970000000000,-0.00008260000000000,-0.00000002750000000,0.00000000279000000,0.00008050000000000,0.00014300000000000,-0.00001750000000000,-0.00018200000000000,0.23300000000000000,0.00069300000000000,-0.23600000000000000,0.00013500000000000,0.00076500000000000,0.58900000000000000,0.73200000000000000
235000.00000000000000000,-0.00011700000000000,-0.00009970000000000,-0.00008260000000000,-0.00000002820000000,0.00000001480000000,0.00008060000000000,0.00014300000000000,-0.00001750000000000,-0.00018200000000000,0.23300000000000000,0.00069400000000000,-0.23600000000000000,0.00014200000000000,0.00077000000000000,0.58900000000000000,0.73200000000000000
235000.00000000000000000,-0.00011700000000000,-0.00009970000000000,-0.00008260000000000,-0.00000002750000000,0.00000000357000000,0.00008060000000000,0.00014300000000000,-0.00001750000000000,-0.00018200000000000,0.23300000000000000,0.00069300000000000,-0.23600000000000000,0.00013700000000000,0.00076700000000000,0.58900000000000000,0.73200000000000000
236000.00000000000000000,-0.00011700000000000,-0.00009970000000000,-0.00008260000000000,-0.00000002640000000,-0.00000001560000000,0.00008060000000000,0.00014300000000000,-0.00001750000000000,-0.00018200000000000,0.23300000000000000,0.00069300000000000,-0.23600000000000000,0.00012600000000000,0.00076100000000000,0.58900000000000000,0.73300000000000000
236000.00000000000000000,-0.00011700000000000,-0.00009980000000000,-0.00008260000000000,-0.00000002680000000,-0.00000000870000000,0.00008060000000000,0.00014300000000000,-0.00001750000000000,-0.00018200000000000,0.23300000000000000,0.00069400000000000,-0.23700000000000000,0.00013000000000000,0.00076400000000000,0.59000000000000000,0.73300000000000000
236000.00000000000000000,-0.00011700000000000,-0.00009980000000000,-0.00008270000000000,-0.00000002750000000,0.00000000351000000,0.00008060000000000,0.00014300000000000,-0.00001760000000000,-0.00018200000000000,0.23400000000000000,0.00069400000000000,-0.23700000000000000,0.00013700000000000,0.00076700000000000,0.59000000000000000,0.73300000000000000
236000.00000000000000000,-0.00011700000000000,-0.00009990000000000,-0.00008270000000000,-0.00000002780000000,0.00000000743000000,0.00008060000000000,0.00014300000000000,-0.00001760000000000,-0.00018300000000000,0.23400000000000000,0.00069400000000000,-0.23700000000000000,0.00013900000000000,0.00076800000000000,0.59000000000000000,0.73400000000000000
236000.00000000000000000,-0.00011700000000000,-0.00009990000000000,-0.00008270000000000,-0.00000002700000000,-0.00000000599000000,0.00008060000000000,0.00014300000000000,-0.00001760000000000,-0.00018300000000000,0.23400000000000000,0.00069400000000000,-0.23700000000000000,0.00013200000000000,0.00076400000000000,0.59000000000000000,0.73400000000000000
236000.00000000000000000,-0.00011700000000000,-0.00009990000000000,-0.00008270000000000,-0.00000002650000000,-0.00000001450000000,0.00008060000000000,0.00014300000000000,-0.00001760000000000,-0.00018300000000000,0.23400000000000000,0.00069400000000000,-0.23700000000000000,0.00012600000000000,0.00076000000000000,0.59000000000000000,0.73400000000000000
236000.00000000000000000,-0.00011800000000000,-0.00010000000000000,-0.00008270000000000,-0.00000002760000000,0.00000000427000000,0.00008070000000000,0.00014300000000000,-0.00001760000000000,-0.00018300000000000,0.23400000000000000,0.00069500000000000,-0.23800000000000000,0.00013700000000000,0.00076600000000000,0.59100000000000000,0.73400000000000000
236000.00000000000000000,-0.00011800000000000,-0.00010000000000000,-0.00008280000000000,-0.00000002810000000,0.00000001310000000,0.00008070000000000,0.00014300000000000,-0.00001770000000000,-0.00018300000000000,0.23500000000000000,0.00069500000000000,-0.23800000000000000,0.00014100000000000,0.00076700000000000,0.59100000000000000,0.73500000000000000
236000.00000000000000000,-0.00011800000000000,-0.00010000000000000,-0.00008280000000000,-0.00000002780000000,0.00000000636000000,0.00008070000000000,0.00014300000000000,-0.00001770000000000,-0.00018300000000000,0.23500000000000000,0.00069500000000000,-0.23800000000000000,0.00013700000000000,0.00076500000000000,0.59100000000000000,0.73500000000000000
236000.00000000000000000,-0.00011800000000000,-0.00010000000000000,-0.00008280000000000,-0.00000002710000000,-0.00000000421000000,0.00008070000000000,0.00014300000000000,-0.00001770000000000,-0.00018300000000000,0.23500000000000000,0.00069500000000000,-0.23800000000000000,0.00013200000000000,0.00076300000000000,0.59100000000000000,0.73500000000000000
237000.00000000000000000,-0.00011800000000000,-0.00010000000000000,-0.00008280000000000,-0.00000002710000000,-0.00000000492000000,0.00008070000000000,0.00014300000000000,-0.00001770000000000,-0.00018300000000000,0.23500000000000000,0.00069500000000000,-0.23800000000000000,0.00013100000000000,0.00076200000000000,0.59100000000000000,0.73600000000000000
237000.00000000000000000,-0.00011800000000000,-0.00010000000000000,-0.00008290000000000,-0.00000002810000000,0.00000001280000000,0.00008070000000000,0.00014300000000000,-0.00001780000000000,-0.00018300000000000,0.23500000000000000,0.00069600000000000,-0.23900000000000000,0.00014100000000000,0.00076800000000000,0.59200000000000000,0.73600000000000000
237000.00000000000000000,-0.00011800000000000,-0.00010000000000000,-0.00008290000000000,-0.00000002800000000,0.00000000990000000,0.00008070000000000,0.00014300000000000,-0.00001780000000000,-0.00018300000000000,0.23600000000000000,0.00069600000000000,-0.23900000000000000,0.00014000000000000,0.00076700000000000,0.59200000000000000,0.73600000000000000
237000.00000000000000000,-0.00011800000000000,-0.00010000000000000,-0.00008280000000000,-0.00000002690000000,-0.00000000718000000,0.00008080000000000,0.00014300000000000,-0.00001770000000000,-0.00018300000000000,0.23600000000000000,0.00069600000000000,-0.23900000000000000,0.00013100000000000,0.00076300000000000,0.59200000000000000,0.73600000000000000
237000.00000000000000000,-0.00011800000000000,-0.00010000000000000,-0.00008290000000000,-0.00000002670000000,-0.00000001010000000,0.00008080000000000,0.00014300000000000,-0.00001770000000000,-0.00018300000000000,0.23600000000000000,0.00069600000000000,-0.23900000000000000,0.00013000000000000,0.00076300000000000,0.59200000000000000,0.73700000000000000
237000.00000000000000000,-0.00011800000000000,-0.00010000000000000,-0.00008290000000000,-0.00000002710000000,-0.00000000382000000,0.00008080000000000,0.00014300000000000,-0.00001780000000000,-0.00018300000000000,0.23600000000000000,0.00069700000000000,-0.23900000000000000,0.00013400000000000,0.00076500000000000,0.59200000000000000,0.73700000000000000
237000.00000000000000000,-0.00011800000000000,-0.00010000000000000,-0.00008300000000000,-0.00000002780000000,0.00000000807000000,0.00008080000000000,0.00014300000000000,-0.00001790000000000,-0.00018300000000000,0.23600000000000000,0.00069700000000000,-0.24000000000000000,0.00014100000000000,0.00076900000000000,0.59300000000000000,0.73700000000000000
237000.00000000000000000,-0.00011800000000000,-0.00010000000000000,-0.00008300000000000,-0.00000002720000000,-0.00000000167000000,0.00008080000000000,0.00014300000000000,-0.00001780000000000,-0.00018300000000000,0.23700000000000000,0.00069700000000000,-0.24000000000000000,0.00013600000000000,0.00076600000000000,0.59300000000000000,0.73800000000000000
237000.00000000000000000,-0.00011800000000000,-0.00010000000000000,-0.00008290000000000,-0.00000002640000000,-0.00000001590000000,0.00008080000000000,0.00014300000000000,-0.00001780000000000,-0.00018300000000000,0.23700000000000000,0.00069700000000000,-0.24000000000000000,0.00012800000000000,0.00076200000000000,0.59300000000000000,0.73800000000000000
237000.00000000000000000,-0.00011800000000000,-0.00010000000000000,-0.00008300000000000,-0.00000002700000000,-0.00000000561000000,0.00008080000000000,0.00014300000000000,-0.00001790000000000,-0.00018300000000000,0.23700000000000000,0.00069800000000000,-0.24000000000000000,0.00013400000000000,0.00076500000000000,0.59300000000000000,0.73800000000000000
238000.00000000000000000,-0.00011800000000000,-0.00010000000000000,-0.00008300000000000,-0.00000002770000000,0.00000000595000000,0.00008080000000000,0.00014300000000000,-0.00001790000000000,-0.00018300000000000,0.23700000000000000,0.00069800000000000,-0.24000000000000000,0.00014000000000000,0.00076700000000000,0.59300000000000000,0.73900000000000000
238000.00000000000000000,-0.00011800000000000,-0.00010100000000000,-0.00008310000000000,-0.00000002780000000,0.00000000873000000,0.00008090000000000,0.00014300000000000,-0.00001790000000000,-0.00018300000000000,0.23700000000000000,0.00069800000000000,-0.24100000000000000,0.00014100000000000,0.00076800000000000,0.59400000000000000,0.73900000000000000
238000.00000000000000000,-0.00011800000000000,-0.00010000000000000,-0.00008300000000000,-0.00000002710000000,-0.00000000398000000,0.00008090000000000,0.00014300000000000,-0.00001790000000000,-0.00018300000000000,0.23800000000000000,0.00069800000000000,-0.24100000000000000,0.00013400000000000,0.00076400000000000,0.59400000000000000,0.73900000000000000
238000.00000000000000000,-0.00011800000000000,-0.00010100000000000,-0.00008300000000000,-0.00000002680000000,-0.00000001060000000,0.00008090000000000,0.00014300000000000,-0.00001790000000000,-0.00018300000000000,0.23800000000000000,0.00069800000000000,-0.24100000000000000,0.00013000000000000,0.00076100000000000,0.59400000000000000,0.73900000000000000
238000.00000000000000000,-0.00011800000000000,-0.00010100000000000,-0.00008310000000000,-0.00000002780000000,0.00000000612000000,0.00008090000000000,0.00014300000000000,-0.00001800000000000,-0.00018400000000000,0.23800000000000000,0.00069900000000000,-0.24100000000000000,0.00013900000000000,0.00076600000000000,0.59400000000000000,0.74000000000000000
238000.00000000000000000,-0.00011900000000000,-0.00010100000000000,-0.00008310000000000,-0.00000002820000000,0.00000001230000000,0.00008090000000000,0.00014300000000000,-0.00001800000000000,-0.00018400000000000,0.23800000000000000,0.00069900000000000,-0.24100000000000000,0.00014200000000000,0.00076700000000000,0.59400000000000000,0.74000000000000000
238000.00000000000000000,-0.00011900000000000,-0.00010100000000000,-0.00008310000000000,-0.00000002760000000,0.00000000314000000,0.00008090000000000,0.00014300000000000,-0.00001800000000000,-0.00018400000000000,0.23800000000000000,0.00069900000000000,-0.24200000000000000,0.00013800000000000,0.00076500000000000,0.59500000000000000,0.74000000000000000
238000.00000000000000000,-0.00011900000000000,-0.00010100000000000,-0.00008310000000000,-0.00000002690000000,-0.00000000946000000,0.00008090000000000,0.00014300000000000,-0.00001800000000000,-0.00018400000000000,0.23900000000000000,0.00069900000000000,-0.24200000000000000,0.00013100000000000,0.00076100000000000,0.59500000000000000,0.74100000000000000
238000.00000000000000000,-0.00011900000000000,-0.00010100000000000,-0.00008310000000000,-0.00000002690000000,-0.00000000836000000,0.00008090000000000,0.00014400000000000,-0.00001800000000000,-0.00018400000000000,0.23900000000000000,0.00069900000000000,-0.24200000000000000,0.00013200000000000,0.00076200000000000,0.59500000000000000,0.74100000000000000
238000.00000000000000000,-0.00011900000000000,-0.00010100000000000,-0.00008320000000000,-0.00000002790000000,0.00000000828000000,0.00008100000000000,0.00014400000000000,-0.00001810000000000,-0.00018400000000000,0.23900000000000000,0.00070000000000000,-0.24200000000000000,0.00014200000000000,0.00076800000000000,0.59500000000000000,0.74100000000000000
239000.00000000000000000,-0.00011900000000000,-0.00010100000000000,-0.00008320000000000,-0.00000002770000000,0.00000000517000000,0.00008100000000000,0.00014400000000000,-0.00001810000000000,-0.00018400000000000,0.23900000000000000,0.00070000000000000,-0.24200000000000000,0.00014100000000000,0.00076700000000000,0.59500000000000000,0.74200000000000000
239000.00000000000000000,-0.00011900000000000,-0.00010100000000000,-0.00008320000000000,-0.00000002680000000,-0.00000000956000000,0.00008100000000000,0.00014400000000000,-0.00001810000000000,-0.00018400000000000,0.23900000000000000,0.00070000000000000,-0.24300000000000000,0.00013300000000000,0.00076300000000000,0.59600000000000000,0.74200000000000000
239000.00000000000000000,-0.00011900000000000,-0.00010100000000000,-0.00008320000000000,-0.00000002650000000,-0.00000001340000000,0.00008100000000000,0.00014400000000000,-0.00001810000000000,-0.00018400000000000,0.24000000000000000,0.00070000000000000,-0.24300000000000000,0.00013200000000000,0.00076300000000000,0.59600000000000000,0.74200000000000000
239000.00000000000000000,-0.00011900000000000,-0.00010100000000000,-0.00008330000000000,-0.00000002710000000,-0.00000000434000000,0.00008100000000000,0.00014400000000000,-0.00001810000000000,-0.00018400000000000,0.24000000000000000,0.00070100000000000,-0.24300000000000000,0.00013600000000000,0.00076500000000000,0.59600000000000000,0.74200000000000000
239000.00000000000000000,-0.00011900000000000,-0.00010100000000000,-0.00008340000000000,-0.00000002780000000,0.00000000853000000,0.00008100000000000,0.00014400000000000,-0.00001820000000000,-0.00018400000000000,0.24000000000000000,0.00070100000000000,-0.24300000000000000,0.00014400000000000,0.00076900000000000,0.59600000000000000,0.74300000000000000
239000.00000000000000000,-0.00011900000000000,-0.00010100000000000,-0.00008330000000000,-0.00000002730000000,-0.00000000103000000,0.00008100000000000,0.00014400000000000,-0.00001820000000000,-0.00018400000000000,0.24000000000000000,0.00070100000000000,-0.24300000000000000,0.00013800000000000,0.00076600000000000,0.59600000000000000,0.74300000000000000
239000.00000000000000000,-0.00011900000000000,-0.00010100000000000,-0.00008330000000000,-0.00000002660000000,-0.00000001310000000,0.00008100000000000,0.00014400000000000,-0.00001820000000000,-0.00018400000000000,0.24100000000000000,0.00070100000000000,-0.24400000000000000,0.00013100000000000,0.00076200000000000,0.59600000000000000,0.74300000000000000
239000.00000000000000000,-0.00011900000000000,-0.00010100000000000,-0.00008330000000000,-0.00000002700000000,-0.00000000607000000,0.00008110000000000,0.00014400000000000,-0.00001820000000000,-0.00018400000000000,0.24100000000000000,0.00070100000000000,-0.24400000000000000,0.00013500000000000,0.00076400000000000,0.59700000000000000,0.74400000000000000
239000.00000000000000000,-0.00011900000000000,-0.00010100000000000,-0.00008340000000000,-0.00000002770000000,0.00000000520000000,0.00008110000000000,0.00014400000000000,-0.00001830000000000,-0.00018400000000000,0.24100000000000000,0.00070200000000000,-0.24400000000000000,0.00014100000000000,0.00076600000000000,0.59700000000000000,0.74400000000000000
239000.00000000000000000,-0.00011900000000000,-0.00010100000000000,-0.00008340000000000,-0.00000002790000000,0.00000000887000000,0.00008110000000000,0.00014400000000000,-0.00001830000000000,-0.00018400000000000,0.24100000000000000,0.00070200000000000,-0.24400000000000000,0.00014300000000000,0.00076700000000000,0.59700000000000000,0.74400000000000000
240000.00000000000000000,-0.00011900000000000,-0.00010100000000000,-0.00008340000000000,-0.00000002710000000,-0.00000000469000000,0.00008110000000000,0.00014400000000000,-0.00001820000000000,-0.00018400000000000,0.24100000000000000,0.00070200000000000,-0.24400000000000000,0.00013500000000000,0.00076300000000000,0.59700000000000000,0.74500000000000000
240000.00000000000000000,-0.00011900000000000,-0.00010100000000000,-0.00008340000000000,-0.00000002680000000,-0.00000000995000000,0.00008110000000000,0.00014400000000000,-0.00001820000000000,-0.00018400000000000,0.24200000000000000,0.00070200000000000,-0.24500000000000000,0.00013200000000000,0.00076100000000000,0.59700000000000000,0.74500000000000000
240000.00000000000000000,-0.00011900000000000,-0.00010100000000000,-0.00008350000000000,-0.00000002760000000,0.00000000285000000,0.00008110000000000,0.00014400000000000,-0.00001830000000000,-0.00018400000000000,0.24200000000000000,0.00070300000000000,-0.24500000000000000,0.00014000000000000,0.00076500000000000,0.59800000000000000,0.74500000000000000
240000.00000000000000000,-0.00011900000000000,-0.00010100000000000,-0.00008350000000000,-0.00000002790000000,0.00000000809000000,0.00008110000000000,0.00014400000000000,-0.00001840000000000,-0.00018500000000000,0.24200000000000000,0.00070300000000000,-0.24500000000000000,0.00014300000000000,0.00076600000000000,0.59800000000000000,0.74500000000000000
240000.00000000000000000,-0.00011900000000000,-0.00010100000000000,-0.00008350000000000,-0.00000002750000000,0.00000000173000000,0.00008110000000000,0.00014400000000000,-0.00001840000000000,-0.00018500000000000,0.24200000000000000,0.00070300000000000,-0.24500000000000000,0.00014000000000000,0.00076500000000000,0.59800000000000000,0.74600000000000000
240000.00000000000000000,-0.00011900000000000,-0.00010100000000000,-0.00008350000000000,-0.00000002670000000,-0.00000001120000000,0.00008120000000000,0.00014400000000000,-0.00001830000000000,-0.00018500000000000,0.24200000000000000,0.00070300000000000,-0.24600000000000000,0.00013300000000000,0.00076200000000000,0.59800000000000000,0.74600000000000000
240000.00000000000000000,-0.00011900000000000,-0.00010100000000000,-0.00008350000000000,-0.00000002690000000,-0.00000000871000000,0.00008120000000000,0.00014400000000000,-0.00001840000000000,-0.00018500000000000,0.24300000000000000,0.00070300000000000,-0.24600000000000000,0.00013500000000000,0.00076300000000000,0.59800000000000000,0.74600000000000000
240000.00000000000000000,-0.00012000000000000,-0.00010100000000000,-0.00008360000000000,-0.00000002760000000,0.00000000516000000,0.00008120000000000,0.00014400000000000,-0.00001840000000000,-0.00018500000000000,0.24300000000000000,0.00070400000000000,-0.24600000000000000,0.00014300000000000,0.00076800000000000,0.59900000000000000,0.74700000000000000
240000.00000000000000000,-0.00012000000000000,-0.00010100000000000,-0.00008360000000000,-0.00000002740000000,0.00000000106000000,0.00008120000000000,0.00014400000000000,-0.00001840000000000,-0.00018500000000000,0.24300000000000000,0.00070400000000000,-0.24600000000000000,0.00014100000000000,0.00076600000000000,0.59900000000000000,0.74700000000000000
240000.00000000000000000,-0.00012000000000000,-0.00010100000000000,-0.00008360000000000,-0.00000002680000000,-0.00000000951000000,0.00008120000000000,0.00014400000000000,-0.00001840000000000,-0.00018500000000000,0.24300000000000000,0.00070400000000000,-0.24600000000000000,0.00013600000000000,0.00076400000000000,0.59900000000000000,0.74700000000000000
241000.00000000000000000,-0.00012000000000000,-0.00010100000000000,-0.00008360000000000,-0.00000002650000000,-0.00000001400000000,0.00008120000000000,0.00014400000000000,-0.00001840000000000,-0.00018500000000000,0.24300000000000000,0.00070400000000000,-0.24700000000000000,0.00013300000000000,0.00076300000000000,0.59900000000000000,0.74700000000000000
241000.00000000000000000,-0.00012000000000000,-0.00010200000000000,-0.00008360000000000,-0.00000002710000000,-0.00000000455000000,0.00008120000000000,0.00014400000000000,-0.00001850000000000,-0.00018500000000000,0.24400000000000000,0.00070500000000000,-0.24700000000000000,0.00013800000000000,0.00076500000000000,0.59900000000000000,0.74800000000000000
241000.00000000000000000,-0.00012000000000000,-0.00010200000000000,-0.00008370000000000,-0.00000002780000000,0.00000000699000000,0.00008120000000000,0.00014400000000000,-0.00001850000000000,-0.00018500000000000,0.24400000000000000,0.00070500000000000,-0.24700000000000000,0.00014500000000000,0.00076800000000000,0.60000000000000000,0.74800000000000000
241000.00000000000000000,-0.00012000000000000,-0.00010200000000000,-0.00008370000000000,-0.00000002710000000,-0.00000000377000000,0.00008130000000000,0.00014400000000000,-0.00001850000000000,-0.00018500000000000,0.24400000000000000,0.00070500000000000,-0.24700000000000000,0.00013800000000000,0.00076400000000000,0.60000000000000000,0.74800000000000000
241000.00000000000000000,-0.00012000000000000,-0.00010200000000000,-0.00008370000000000,-0.00000002670000000,-0.00000001200000000,0.00008130000000000,0.00014400000000000,-0.00001850000000000,-0.00018500000000000,0.24400000000000000,0.00070500000000000,-0.24700000000000000,0.00013300000000000,0.00076200000000000,0.60000000000000000,0.74900000000000000
241000.00000000000000000,-0.00012000000000000,-0.00010200000000000,-0.00008370000000000,-0.00000002710000000,-0.00000000543000000,0.00008130000000000,0.00014400000000000,-0.00001850000000000,-0.00018500000000000,0.24400000000000000,0.00070500000000000,-0.24800000000000000,0.00013700000000000,0.00076300000000000,0.60000000000000000,0.74900000000000000
241000.00000000000000000,-0.00012000000000000,-0.00010200000000000,-0.00008380000000000,-0.00000002770000000,0.00000000530000000,0.00008130000000000,0.00014400000000000,-0.00001860000000000,-0.00018500000000000,0.24500000000000000,0.00070600000000000,-0.24800000000000000,0.00014300000000000,0.00076500000000000,0.60000000000000000,0.74900000000000000
241000.00000000000000000,-0.00012000000000000,-0.00010200000000000,-0.00008380000000000,-0.00000002800000000,0.00000000881000000,0.00008130000000000,0.00014400000000000,-0.00001860000000000,-0.00018500000000000,0.24500000000000000,0.00070600000000000,-0.24800000000000000,0.00014500000000000,0.00076700000000000,0.60100000000000000,0.75000000000000000
241000.00000000000000000,-0.00012000000000000,-0.00010200000000000,-0.00008380000000000,-0.00000002700000000,-0.00000000614000000,0.00008130000000000,0.00014400000000000,-0.00001860000000000,-0.00018500000000000,0.24500000000000000,0.00070600000000000,-0.24800000000000000,0.00013600000000000,0.00076200000000000,0.60100000000000000,0.75000000000000000
241000.00000000000000000,-0.00012000000000000,-0.00010200000000000,-0.00008380000000000,-0.00000002680000000,-0.00000001010000000,0.00008130000000000,0.00014400000000000,-0.00001860000000000,-0.00018500000000000,0.24500000000000000,0.00070600000000000,-0.24800000000000000,0.00013500000000000,0.00076100000000000,0.60100000000000000,0.75000000000000000
242000.00000000000000000,-0.00012000000000000,-0.00010200000000000,-0.00008380000000000,-0.00000002750000000,0.00000000187000000,0.00008130000000000,0.00014400000000000,-0.00001870000000000,-0.00018500000000000,0.24500000000000000,0.00070700000000000,-0.24900000000000000,0.00014200000000000,0.00076500000000000,0.60100000000000000,0.75000000000000000
242000.00000000000000000,-0.00012000000000000,-0.00010200000000000,-0.00008390000000000,-0.00000002780000000,0.00000000612000000,0.00008140000000000,0.00014400000000000,-0.00001870000000000,-0.00018500000000000,0.24600000000000000,0.00070700000000000,-0.24900000000000000,0.00014500000000000,0.00076700000000000,0.60100000000000000,0.75100000000000000
242000.00000000000000000,-0.00012000000000000,-0.00010200000000000,-0.00008390000000000,-0.00000002740000000,-0.00000000022700000,0.00008140000000000,0.00014400000000000,-0.00001870000000000,-0.00018500000000000,0.24600000000000000,0.00070700000000000,-0.24900000000000000,0.00014200000000000,0.00076600000000000,0.60100000000000000,0.75100000000000000
242000.00000000000000000,-0.00012000000000000,-0.00010200000000000,-0.00008380000000000,-0.00000002650000000,-0.00000001420000000,0.00008140000000000,0.00014400000000000,-0.00001870000000000,-0.00018500000000000,0.24600000000000000,0.00070700000000000,-0.24900000000000000,0.00013400000000000,0.00076200000000000,0.60200000000000000,0.75100000000000000
242000.00000000000000000,-0.00012000000000000,-0.00010200000000000,-0.00008390000000000,-0.00000002670000000,-0.00000001120000000,0.00008140000000000,0.00014400000000000,-0.00001870000000000,-0.00018600000000000,0.24600000000000000,0.00070700000000000,-0.24900000000000000,0.00013600000000000,0.00076300000000000,0.60200000000000000,0.75100000000000000
242000.00000000000000000,-0.00012000000000000,-0.00010200000000000,-0.00008400000000000,-0.00000002760000000,0.00000000253000000,0.00008140000000000,0.00014400000000000,-0.00001880000000000,-0.00018600000000000,0.24600000000000000,0.00070800000000000,-0.25000000000000000,0.00014400000000000,0.00076800000000000,0.60200000000000000,0.75200000000000000
242000.00000000000000000,-0.00012000000000000,-0.00010200000000000,-0.00008400000000000,-0.00000002750000000,-0.00000000019800000,0.00008140000000000,0.00014500000000000,-0.00001880000000000,-0.00018600000000000,0.24600000000000000,0.00070800000000000,-0.25000000000000000,0.00014200000000000,0.00076600000000000,0.60200000000000000,0.75200000000000000
242000.00000000000000000,-0.00012000000000000,-0.00010200000000000,-0.00008390000000000,-0.00000002700000000,-0.00000000974000000,0.00008140000000000,0.00014500000000000,-0.00001870000000000,-0.00018600000000000,0.24700000000000000,0.00070800000000000,-0.25000000000000000,0.00013700000000000,0.00076400000000000,0.60200000000000000,0.75200000000000000
242000.00000000000000000,-0.00012000000000000,-0.00010200000000000,-0.00008390000000000,-0.00000002680000000,-0.00000001490000000,0.00008140000000000,0.00014500000000000,-0.00001870000000000,-0.00018600000000000,0.24700000000000000,0.00070800000000000,-0.25000000000000000,0.00013300000000000,0.00076200000000000,0.60200000000000000,0.75200000000000000
242000.00000000000000000,-0.00012100000000000,-0.00010200000000000,-0.00008390000000000,-0.00000002760000000,-0.00000000390000000,0.00008140000000000,0.00014500000000000,-0.00001880000000000,-0.00018600000000000,0.24700000000000000,0.00070800000000000,-0.25000000000000000,0.00013900000000000,0.00076400000000000,0.60200000000000000,0.75300000000000000
243000.00000000000000000,-0.00012100000000000,-0.00010200000000000,-0.00008400000000000,-0.00000002850000000,0.00000000858000000,0.00008140000000000,0.00014500000000000,-0.00001880000000000,-0.00018600000000000,0.24700000000000000,0.00070900000000000,-0.25000000000000000,0.00014500000000000,0.00076800000000000,0.60300000000000000,0.75300000000000000
243000.00000000000000000,-0.00012100000000000,-0.00010200000000000,-0.00008390000000000,-0.00000002810000000,-0.00000000019200000,0.00008140000000000,0.00014500000000000,-0.00001880000000000,-0.00018600000000000,0.24700000000000000,0.00070800000000000,-0.25000000000000000,0.00013900000000000,0.00076400000000000,0.60300000000000000,0.75300000000000000
243000.00000000000000000,-0.00012100000000000,-0.00010200000000000,-0.00008390000000000,-0.00000002780000000,-0.00000000654000000,0.00008150000000000,0.00014500000000000,-0.00001880000000000,-0.00018600000000000,0.24700000000000000,0.00070800000000000,-0.25000000000000000,0.00013600000000000,0.00076300000000000,0.60300000000000000,0.75300000000000000
243000.00000000000000000,-0.00012100000000000,-0.00010200000000000,-0.00008400000000000,-0.00000002820000000,-0.00000000083900000,0.00008150000000000,0.00014500000000000,-0.00001880000000000,-0.00018600000000000,0.24700000000000000,0.00070900000000000,-0.25100000000000000,0.00013900000000000,0.00076400000000000,0.60300000000000000,0.75300000000000000
243000.00000000000000000,-0.00012100000000000,-0.00010200000000000,-0.00008400000000000,-0.00000002880000000,0.00000000968000000,0.00008150000000000,0.00014500000000000,-0.00001890000000000,-0.00018600000000000,0.24800000000000000,0.00070900000000000,-0.25100000000000000,0.00014500000000000,0.00076600000000000,0.60300000000000000,0.75400000000000000
243000.00000000000000000,-0.00012100000000000,-0.00010200000000000,-0.00008400000000000,-0.00000002910000000,0.00000001360000000,0.00008150000000000,0.00014500000000000,-0.00001890000000000,-0.00018600000000000,0.24800000000000000,0.00071000000000000,-0.25100000000000000,0.00014700000000000,0.00076800000000000,0.60300000000000000,0.75400000000000000
243000.00000000000000000,-0.00012100000000000,-0.00010200000000000,-0.00008400000000000,-0.00000002820000000,-0.00000000098700000,0.00008150000000000,0.00014500000000000,-0.00001880000000000,-0.00018600000000000,0.24800000000000000,0.00070900000000000,-0.25100000000000000,0.00013900000000000,0.00076400000000000,0.60400000000000000,0.75400000000000000
243000.00000000000000000,-0.00012100000000000,-0.00010200000000000,-0.00008400000000000,-0.00000002780000000,-0.00000000574000000,0.00008150000000000,0.00014500000000000,-0.00001890000000000,-0.00018600000000000,0.24800000000000000,0.00070900000000000,-0.25100000000000000,0.00013700000000000,0.00076400000000000,0.60400000000000000,0.75400000000000000
243000.00000000000000000,-0.00012100000000000,-0.00010200000000000,-0.00008410000000000,-0.00000002830000000,0.00000000227000000,0.00008150000000000,0.00014500000000000,-0.00001890000000000,-0.00018600000000000,0.24800000000000000,0.00071000000000000,-0.25200000000000000,0.00014200000000000,0.00076600000000000,0.60400000000000000,0.75500000000000000
243000.00000000000000000,-0.00012100000000000,-0.00010200000000000,-0.00008410000000000,-0.00000002850000000,0.00000000497000000,0.00008150000000000,0.00014500000000000,-0.00001900000000000,-0.00018600000000000,0.24900000000000000,0.00071000000000000,-0.25200000000000000,0.00014400000000000,0.00076700000000000,0.60400000000000000,0.75500000000000000
244000.00000000000000000,-0.00012100000000000,-0.00010200000000000,-0.00008410000000000,-0.00000002800000000,-0.00000000187000000,0.00008150000000000,0.00014500000000000,-0.00001900000000000,-0.00018600000000000,0.24900000000000000,0.00071000000000000,-0.25200000000000000,0.00014100000000000,0.00076700000000000,0.60400000000000000,0.75500000000000000
244000.00000000000000000,-0.00012100000000000,-0.00010200000000000,-0.00008410000000000,-0.00000002720000000,-0.00000001520000000,0.00008160000000000,0.00014500000000000,-0.00001890000000000,-0.00018600000000000,0.24900000000000000,0.00071000000000000,-0.25200000000000000,0.00013400000000000,0.00076300000000000,0.60500000000000000,0.75600000000000000
244000.00000000000000000,-0.00012100000000000,-0.00010200000000000,-0.00008410000000000,-0.00000002740000000,-0.00000001100000000,0.00008160000000000,0.00014500000000000,-0.00001900000000000,-0.00018600000000000,0.24900000000000000,0.00071100000000000,-0.25200000000000000,0.00013700000000000,0.00076400000000000,0.60500000000000000,0.75600000000000000
244000.00000000000000000,-0.00012100000000000,-0.00010200000000000,-0.00008420000000000,-0.00000002820000000,0.00000000116000000,0.00008160000000000,0.00014500000000000,-0.00001900000000000,-0.00018600000000000,0.24900000000000000,0.00071100000000000,-0.25300000000000000,0.00014300000000000,0.00076700000000000,0.60500000000000000,0.75600000000000000
244000.00000000000000000,-0.00012100000000000,-0.00010300000000000,-0.00008420000000000,-0.00000002820000000,0.00000000082400000,0.00008160000000000,0.00014500000000000,-0.00001900000000000,-0.00018600000000000,0.25000000000000000,0.00071100000000000,-0.25300000000000000,0.00014200000000000,0.00076600000000000,0.60500000000000000,0.75600000000000000
244000.00000000000000000,-0.00012100000000000,-0.00010300000000000,-0.00008420000000000,-0.00000002780000000,-0.00000000579000000,0.00008160000000000,0.00014500000000000,-0.00001900000000000,-0.00018600000000000,0.25000000000000000,0.00071100000000000,-0.25300000000000000,0.00013900000000000,0.00076400000000000,0.60500000000000000,0.75700000000000000
244000.00000000000000000,-0.00012100000000000,-0.00010300000000000,-0.00008420000000000,-0.00000002770000000,-0.00000000869000000,0.00008160000000000,0.00014500000000000,-0.00001900000000000,-0.00018600000000000,0.25000000000000000,0.00071100000000000,-0.25300000000000000,0.00013600000000000,0.00076300000000000,0.60500000000000000,0.75700000000000000
244000.00000000000000000,-0.00012100000000000,-0.00010300000000000,-0.00008430000000000,-0.00000002850000000,0.00000000349000000,0.00008160000000000,0.00014500000000000,-0.00001910000000000,-0.00018700000000000,0.25000000000000000,0.00071200000000000,-0.25300000000000000,0.00014300000000000,0.00076500000000000,0.60600000000000000,0.75700000000000000
244000.00000000000000000,-0.00012100000000000,-0.00010300000000000,-0.00008430000000000,-0.00000002900000000,0.00000001280000000,0.00008160000000000,0.00014500000000000,-0.00001910000000000,-0.00018700000000000,0.25000000000000000,0.00071200000000000,-0.25400000000000000,0.00014800000000000,0.00076700000000000,0.60600000000000000,0.75800000000000000
244000.00000000000000000,-0.00012100000000000,-0.00010300000000000,-0.00008430000000000,-0.00000002850000000,0.00000000423000000,0.00008170000000000,0.00014500000000000,-0.00001910000000000,-0.00018700000000000,0.25100000000000000,0.00071200000000000,-0.25400000000000000,0.00014300000000000,0.00076500000000000,0.60600000000000000,0.75800000000000000
245000.00000000000000000,-0.00012100000000000,-0.00010300000000000,-0.00008430000000000,-0.00000002800000000,-0.00000000357000000,0.00008170000000000,0.00014500000000000,-0.00001910000000000,-0.00018700000000000,0.25100000000000000,0.00071200000000000,-0.25400000000000000,0.00013900000000000,0.00076300000000000,0.60600000000000000,0.75800000000000000
245000.00000000000000000,-0.00012200000000000,-0.00010300000000000,-0.00008430000000000,-0.00000002800000000,-0.00000000265000000,0.00008170000000000,0.00014500000000000,-0.00001910000000000,-0.00018700000000000,0.25100000000000000,0.00071300000000000,-0.25400000000000000,0.00014000000000000,0.00076400000000000,0.60600000000000000,0.75900000000000000
245000.00000000000000000,-0.00012200000000000,-0.00010300000000000,-0.00008440000000000,-0.00000002850000000,0.00000000570000000,0.00008170000000000,0.00014500000000000,-0.00001920000000000,-0.00018700000000000,0.25100000000000000,0.00071300000000000,-0.25400000000000000,0.00014500000000000,0.00076600000000000,0.60700000000000000,0.75900000000000000
245000.00000000000000000,-0.00012200000000000,-0.00010300000000000,-0.00008440000000000,-0.00000002850000000,0.00000000551000000,0.00008170000000000,0.00014500000000000,-0.00001920000000000,-0.00018700000000000,0.25100000000000000,0.00071300000000000,-0.25500000000000000,0.00014600000000000,0.00076700000000000,0.60700000000000000,0.75900000000000000
245000.00000000000000000,-0.00012200000000000,-0.00010300000000000,-0.00008440000000000,-0.00000002750000000,-0.00000000968000000,0.00008170000000000,0.00014500000000000,-0.00001920000000000,-0.00018700000000000,0.25200000000000000,0.00071300000000000,-0.25500000000000000,0.00013800000000000,0.00076400000000000,0.60700000000000000,0.75900000000000000
245000.00000000000000000,-0.00012200000000000,-0.00010300000000000,-0.00008440000000000,-0.00000002730000000,-0.00000001310000000,0.00008170000000000,0.00014500000000000,-0.00001920000000000,-0.00018700000000000,0.25200000000000000,0.00071300000000000,-0.25500000000000000,0.00013700000000000,0.00076400000000000,0.60700000000000000,0.76000000000000000
245000.00000000000000000,-0.00012200000000000,-0.00010300000000000,-0.00008440000000000,-0.00000002770000000,-0.00000000553000000,0.00008170000000000,0.00014500000000000,-0.00001930000000000,-0.00018700000000000,0.25200000000000000,0.00071400000000000,-0.25500000000000000,0.00014100000000000,0.00076600000000000,0.60700000000000000,0.76000000000000000
245000.00000000000000000,-0.00012200000000000,-0.00010300000000000,-0.00008450000000000,-0.00000002810000000,0.00000000074000000,0.00008180000000000,0.00014500000000000,-0.00001930000000000,-0.00018700000000000,0.25200000000000000,0.00071400000000000,-0.25500000000000000,0.00014500000000000,0.00076700000000000,0.60800000000000000,0.76000000000000000
245000.00000000000000000,-0.00012200000000000,-0.00010300000000000,-0.00008450000000000,-0.00000002790000000,-0.00000000253000000,0.00008180000000000,0.00014500000000000,-0.00001930000000000,-0.00018700000000000,0.25200000000000000,0.00071400000000000,-0.25600000000000000,0.00014300000000000,0.00076600000000000,0.60800000000000000,0.76100000000000000
245000.00000000000000000,-0.00012200000000000,-0.00010300000000000,-0.00008450000000000,-0.00000002730000000,-0.00000001320000000,0.00008180000000000,0.00014500000000000,-0.00001930000000000,-0.00018700000000000,0.25300000000000000,0.00071400000000000,-0.25600000000000000,0.00013700000000000,0.00076300000000000,0.60800000000000000,0.76100000000000000
246000.00000000000000000,-0.00012200000000000,-0.00010300000000000,-0.00008450000000000,-0.00000002770000000,-0.00000000651000000,0.00008180000000000,0.00014500000000000,-0.00001930000000000,-0.00018700000000000,0.25300000000000000,0.00071500000000000,-0.25600000000000000,0.00014000000000000,0.00076400000000000,0.60800000000000000,0.76100000000000000
246000.00000000000000000,-0.00012200000000000,-0.00010300000000000,-0.00008460000000000,-0.00000002850000000,0.00000000515000000,0.00008180000000000,0.00014500000000000,-0.00001940000000000,-0.00018700000000000,0.25300000000000000,0.00071500000000000,-0.25600000000000000,0.00014600000000000,0.00076600000000000,0.60800000000000000,0.76100000000000000
246000.00000000000000000,-0.00012200000000000,-0.00010300000000000,-0.00008460000000000,-0.00000002850000000,0.00000000582000000,0.00008180000000000,0.00014500000000000,-0.00001940000000000,-0.00018700000000000,0.25300000000000000,0.00071500000000000,-0.25600000000000000,0.00014600000000000,0.00076600000000000,0.60800000000000000,0.76200000000000000
246000.00000000000000000,-0.00012200000000000,-0.00010300000000000,-0.00008460000000000,-0.00000002810000000,-0.00000000094500000,0.00008180000000000,0.00014500000000000,-0.00001940000000000,-0.00018700000000000,0.25300000000000000,0.00071500000000000,-0.25700000000000000,0.00014200000000000,0.00076400000000000,0.60900000000000000,0.76200000000000000
246000.00000000000000000,-0.00012200000000000,-0.00010300000000000,-0.00008460000000000,-0.00000002770000000,-0.00000000722000000,0.00008180000000000,0.00014500000000000,-0.00001940000000000,-0.00018700000000000,0.25400000000000000,0.00071500000000000,-0.25700000000000000,0.00013900000000000,0.00076200000000000,0.60900000000000000,0.76200000000000000
246000.00000000000000000,-0.00012200000000000,-0.00010300000000000,-0.00008460000000000,-0.00000002830000000,0.00000000199000000,0.00008190000000000,0.00014500000000000,-0.00001940000000000,-0.00018700000000000,0.25400000000000000,0.00071600000000000,-0.25700000000000000,0.00014400000000000,0.00076500000000000,0.60900000000000000,0.76300000000000000
246000.00000000000000000,-0.00012200000000000,-0.00010300000000000,-0.00008470000000000,-0.00000002860000000,0.00000000763000000,0.00008190000000000,0.00014500000000000,-0.00001950000000000,-0.00018700000000000,0.25400000000000000,0.00071600000000000,-0.25700000000000000,0.00014800000000000,0.00076600000000000,0.60900000000000000,0.76300000000000000
246000.00000000000000000,-0.00012200000000000,-0.00010300000000000,-0.00008470000000000,-0.00000002800000000,-0.00000000170000000,0.00008190000000000,0.00014600000000000,-0.00001950000000000,-0.00018800000000000,0.25400000000000000,0.00071600000000000,-0.25700000000000000,0.00014300000000000,0.00076400000000000,0.60900000000000000,0.76300000000000000
246000.00000000000000000,-0.00012200000000000,-0.00010300000000000,-0.00008470000000000,-0.00000002740000000,-0.00000001000000000,0.00008190000000000,0.00014600000000000,-0.00001950000000000,-0.00018800000000000,0.25400000000000000,0.00071600000000000,-0.25800000000000000,0.00013900000000000,0.00076300000000000,0.61000000000000000,0.76300000000000000
246000.00000000000000000,-0.00012200000000000,-0.00010300000000000,-0.00008470000000000,-0.00000002740000000,-0.00000001060000000,0.00008190000000000,0.00014600000000000,-0.00001950000000000,-0.00018800000000000,0.25500000000000000,0.00071600000000000,-0.25800000000000000,0.00013900000000000,0.00076300000000000,0.61000000000000000,0.76400000000000000
247000.00000000000000000,-0.00012200000000000,-0.00010300000000000,-0.00008470000000000,-0.00000002800000000,-0.00000000069500000,0.00008190000000000,0.00014600000000000,-0.00001950000000000,-0.00018800000000000,0.25500000000000000,0.00071700000000000,-0.25800000000000000,0.00014500000000000,0.00076600000000000,0.61000000000000000,0.76400000000000000
247000.00000000000000000,-0.00012300000000000,-0.00010300000000000,-0.00008480000000000,-0.00000002810000000,0.00000000062400000,0.00008190000000000,0.00014600000000000,-0.00001960000000000,-0.00018800000000000,0.25500000000000000,0.00071700000000000,-0.25800000000000000,0.00014700000000000,0.00076700000000000,0.61000000000000000,0.76400000000000000
247000.00000000000000000,-0.00012300000000000,-0.00010300000000000,-0.00008470000000000,-0.00000002730000000,-0.00000001080000000,0.00008190000000000,0.00014600000000000,-0.00001950000000000,-0.00018800000000000,0.25500000000000000,0.00071700000000000,-0.25900000000000000,0.00014000000000000,0.00076400000000000,0.61000000000000000,0.76500000000000000
247000.00000000000000000,-0.00012300000000000,-0.00010300000000000,-0.00008470000000000,-0.00000002710000000,-0.00000001240000000,0.00008200000000000,0.00014600000000000,-0.00001960000000000,-0.00018800000000000,0.25500000000000000,0.00071700000000000,-0.25900000000000000,0.00014000000000000,0.00076400000000000,0.61000000000000000,0.76500000000000000
247000.00000000000000000,-0.00012300000000000,-0.00010400000000000,-0.00008480000000000,-0.00000002760000000,-0.00000000497000000,0.00008200000000000,0.00014600000000000,-0.00001960000000000,-0.00018800000000000,0.25600000000000000,0.00071800000000000,-0.25900000000000000,0.00014300000000000,0.00076500000000000,0.61100000000000000,0.76500000000000000
247000.00000000000000000,-0.00012300000000000,-0.00010400000000000,-0.00008490000000000,-0.00000002830000000,0.00000000216000000,0.00008200000000000,0.00014600000000000,-0.00001970000000000,-0.00018800000000000,0.25600000000000000,0.00071800000000000,-0.25900000000000000,0.00014700000000000,0.00076600000000000,0.61100000000000000,0.76500000000000000
247000.00000000000000000,-0.00012300000000000,-0.00010400000000000,-0.00008490000000000,-0.00000002830000000,-0.00000000067200000,0.00008200000000000,0.00014600000000000,-0.00001970000000000,-0.00018800000000000,0.25600000000000000,0.00071800000000000,-0.25900000000000000,0.00014500000000000,0.00076500000000000,0.61100000000000000,0.76600000000000000
247000.00000000000000000,-0.00012300000000000,-0.00010400000000000,-0.00008480000000000,-0.00000002770000000,-0.00000000926000000,0.00008200000000000,0.00014600000000000,-0.00001960000000000,-0.00018800000000000,0.25600000000000000,0.00071800000000000,-0.26000000000000000,0.00013900000000000,0.00076200000000000,0.61100000000000000,0.76600000000000000
247000.00000000000000000,-0.00012300000000000,-0.00010400000000000,-0.00008480000000000,-0.00000002780000000,-0.00000000257000000,0.00008200000000000,0.00014600000000000,-0.00001960000000000,-0.00018800000000000,0.25700000000000000,0.00071900000000000,-0.26000000000000000,0.00014300000000000,0.00076400000000000,0.61100000000000000,0.76600000000000000
247000.00000000000000000,-0.00012300000000000,-0.00010400000000000,-0.00008480000000000,-0.00000002790000000,0.00000000573000000,0.00008200000000000,0.00014600000000000,-0.00001960000000000,-0.00018800000000000,0.25700000000000000,0.00071900000000000,-0.26000000000000000,0.00014800000000000,0.00076500000000000,0.61200000000000000,0.76700000000000000
248000.00000000000000000,-0.00012300000000000,-0.00010400000000000,-0.00008490000000000,-0.00000002740000000,0.00000000196000000,0.00008200000000000,0.00014600000000000,-0.00001970000000000,-0.00018800000000000,0.25700000000000000,0.00071900000000000,-0.26000000000000000,0.00014700000000000,0.00076300000000000,0.61200000000000000,0.76700000000000000
248000.00000000000000000,-0.00012300000000000,-0.00010400000000000,-0.00008490000000000,-0.00000002670000000,-0.00000001100000000,0.00008200000000000,0.00014600000000000,-0.00001980000000000,-0.00018800000000000,0.25700000000000000,0.00071900000000000,-0.26000000000000000,0.00014200000000000,0.00076000000000000,0.61200000000000000,0.76700000000000000
248000.00000000000000000,-0.00012300000000000,-0.00010400000000000,-0.00008500000000000,-0.00000002640000000,-0.00000002110000000,0.00008210000000000,0.00014600000000000,-0.00001980000000000,-0.00018800000000000,0.25700000000000000,0.00071900000000000,-0.26100000000000000,0.00013700000000000,0.00075800000000000,0.61200000000000000,0.76800000000000000
248000.00000000000000000,-0.00012300000000000,-0.00010400000000000,-0.00008500000000000,-0.00000002740000000,-0.00000001270000000,0.00008210000000000,0.00014600000000000,-0.00001980000000000,-0.00018800000000000,0.25800000000000000,0.00071900000000000,-0.26100000000000000,0.00014200000000000,0.00076100000000000,0.61200000000000000,0.76800000000000000
248000.00000000000000000,-0.00012300000000000,-0.00010400000000000,-0.00008500000000000,-0.00000002790000000,-0.00000000648000000,0.00008210000000000,0.00014600000000000,-0.00001980000000000,-0.00018800000000000,0.25800000000000000,0.00072000000000000,-0.26100000000000000,0.00014600000000000,0.00076300000000000,0.61300000000000000,0.76800000000000000
248000.00000000000000000,-0.00012300000000000,-0.00010400000000000,-0.00008490000000000,-0.00000002740000000,-0.00000001150000000,0.00008210000000000,0.00014600000000000,-0.00001970000000000,-0.00018800000000000,0.25800000000000000,0.00072000000000000,-0.26200000000000000,0.00014400000000000,0.00076200000000000,0.61300000000000000,0.76900000000000000
248000.00000000000000000,-0.00012300000000000,-0.00010400000000000,-0.00008490000000000,-0.00000002670000000,-0.00000001790000000,0.00008210000000000,0.00014600000000000,-0.00001960000000000,-0.00018800000000000,0.25900000000000000,0.00072000000000000,-0.26200000000000000,0.00014100000000000,0.00076100000000000,0.61300000000000000,0.76900000000000000
248000.00000000000000000,-0.00012300000000000,-0.00010400000000000,-0.00008480000000000,-0.00000002650000000,-0.00000001690000000,0.00008220000000000,0.00014600000000000,-0.00001960000000000,-0.00018800000000000,0.25900000000000000,0.00072000000000000,-0.26200000000000000,0.00014200000000000,0.00076000000000000,0.61300000000000000,0.76900000000000000
248000.00000000000000000,-0.00012300000000000,-0.00010400000000000,-0.00008490000000000,-0.00000002690000000,-0.00000000464000000,0.00008220000000000,0.00014600000000000,-0.00001960000000000,-0.00018800000000000,0.25900000000000000,0.00072000000000000,-0.26200000000000000,0.00014900000000000,0.00076300000000000,0.61300000000000000,0.77000000000000000
248000.00000000000000000,-0.00012300000000000,-0.00010400000000000,-0.00008490000000000,-0.00000002680000000,-0.00000000283000000,0.00008220000000000,0.00014600000000000,-0.00001960000000000,-0.00018800000000000,0.25900000000000000,0.00072000000000000,-0.26300000000000000,0.00015100000000000,0.00076200000000000,0.61400000000000000,0.77000000000000000
249000.00000000000000000,-0.00012300000000000,-0.00010400000000000,-0.00008480000000000,-0.00000002600000000,-0.00000001150000000,0.00008220000000000,0.00014600000000000,-0.00001960000000000,-0.00018800000000000,0.26000000000000000,0.00072000000000000,-0.26300000000000000,0.00014600000000000,0.00075900000000000,0.61400000000000000,0.77000000000000000
249000.00000000000000000,-0.00012300000000000,-0.00010400000000000,-0.00008480000000000,-0.00000002580000000,-0.00000001380000000,0.00008220000000000,0.00014600000000000,-0.00001960000000000,-0.00018800000000000,0.26000000000000000,0.00072000000000000,-0.26300000000000000,0.00014500000000000,0.00075800000000000,0.61400000000000000,0.77100000000000000
249000.00000000000000000,-0.00012300000000000,-0.00010400000000000,-0.00008490000000000,-0.00000002600000000,-0.00000000863000000,0.00008220000000000,0.00014600000000000,-0.00001960000000000,-0.00018900000000000,0.26000000000000000,0.00072000000000000,-0.26300000000000000,0.00014700000000000,0.00075800000000000,0.61400000000000000,0.77100000000000000
249000.00000000000000000,-0.00012300000000000,-0.00010400000000000,-0.00008490000000000,-0.00000002640000000,-0.00000000188000000,0.00008220000000000,0.00014600000000000,-0.00001970000000000,-0.00018900000000000,0.26000000000000000,0.00072100000000000,-0.26400000000000000,0.00015100000000000,0.00076000000000000,0.61400000000000000,0.77100000000000000
249000.00000000000000000,-0.00012300000000000,-0.00010400000000000,-0.00008490000000000,-0.00000002580000000,-0.00000000846000000,0.00008220000000000,0.00014600000000000,-0.00001970000000000,-0.00018900000000000,0.26100000000000000,0.00072000000000000,-0.26400000000000000,0.00014800000000000,0.00075800000000000,0.61500000000000000,0.77200000000000000
249000.00000000000000000,-0.00012300000000000,-0.00010400000000000,-0.00008490000000000,-0.00000002510000000,-0.00000002000000000,0.00008230000000000,0.00014600000000000,-0.00001970000000000,-0.00018900000000000,0.26100000000000000,0.00072000000000000,-0.26400000000000000,0.00014200000000000,0.00075500000000000,0.61500000000000000,0.77200000000000000
249000.00000000000000000,-0.00012300000000000,-0.00010400000000000,-0.00008490000000000,-0.00000002510000000,-0.00000001840000000,0.00008230000000000,0.00014600000000000,-0.00001970000000000,-0.00018900000000000,0.26100000000000000,0.00072100000000000,-0.26400000000000000,0.00014400000000000,0.00075600000000000,0.61500000000000000,0.77200000000000000
249000.00000000000000000,-0.00012400000000000,-0.00010400000000000,-0.00008500000000000,-0.00000002540000000,-0.00000001320000000,0.00008230000000000,0.00014600000000000,-0.00001970000000000,-0.00018900000000000,0.26100000000000000,0.00072100000000000,-0.26400000000000000,0.00014700000000000,0.00075700000000000,0.61500000000000000,0.77200000000000000
249000.00000000000000000,-0.00012400000000000,-0.00010400000000000,-0.00008500000000000,-0.00000002540000000,-0.00000001270000000,0.00008230000000000,0.00014600000000000,-0.00001980000000000,-0.00018900000000000,0.26100000000000000,0.00072100000000000,-0.26500000000000000,0.00014800000000000,0.00075800000000000,0.61500000000000000,0.77300000000000000
249000.00000000000000000,-0.00012400000000000,-0.00010400000000000,-0.00008500000000000,-0.00000002480000000,-0.00000002140000000,0.00008230000000000,0.00014600000000000,-0.00001980000000000,-0.00018900000000000,0.26200000000000000,0.00072100000000000,-0.26500000000000000,0.00014400000000000,0.00075700000000000,0.61600000000000000,0.77300000000000000
250000.00000000000000000,-0.00012400000000000,-0.00010400000000000,-0.00008500000000000,-0.00000002440000000,-0.00000002670000000,0.00008230000000000,0.00014600000000000,-0.00001980000000000,-0.00018900000000000,0.26200000000000000,0.00072100000000000,-0.26500000000000000,0.00014200000000000,0.00075500000000000,0.61600000000000000,0.77300000000000000
250000.00000000000000000,-0.00012400000000000,-0.00010400000000000,-0.00008510000000000,-0.00000002500000000,-0.00000001730000000,0.00008230000000000,0.00014600000000000,-0.00001980000000000,-0.00018900000000000,0.26200000000000000,0.00072200000000000,-0.26500000000000000,0.00014700000000000,0.00075800000000000,0.61600000000000000,0.77400000000000000
250000.00000000000000000,-0.00012400000000000,-0.00010400000000000,-0.00008510000000000,-0.00000002540000000,-0.00000001170000000,0.00008240000000000,0.00014700000000000,-0.00001990000000000,-0.00018900000000000,0.26200000000000000,0.00072200000000000,-0.26600000000000000,0.00015000000000000,0.00075900000000000,0.61600000000000000,0.77400000000000000
250000.00000000000000000,-0.00012400000000000,-0.00010400000000000,-0.00008510000000000,-0.00000002520000000,-0.00000001490000000,0.00008240000000000,0.00014700000000000,-0.00001990000000000,-0.00018900000000000,0.26300000000000000,0.00072200000000000,-0.26600000000000000,0.00014800000000000,0.00075800000000000,0.61600000000000000,0.77400000000000000
250000.00000000000000000,-0.00012400000000000,-0.00010400000000000,-0.00008510000000000,-0.00000002480000000,-0.00000002150000000,0.00008240000000000,0.00014700000000000,-0.00001990000000000,-0.00018900000000000,0.26300000000000000,0.00072200000000000,-0.26600000000000000,0.00014400000000000,0.00075600000000000,0.61600000000000000,0.77400000000000000
250000.00000000000000000,-0.00012400000000000,-0.00010400000000000,-0.00008510000000000,-0.00000002490000000,-0.00000002050000000,0.00008240000000000,0.00014700000000000,-0.00001990000000000,-0.00018900000000000,0.26300000000000000,0.00072200000000000,-0.26600000000000000,0.00014500000000000,0.00075500000000000,0.61700000000000000,0.77500000000000000
250000.00000000000000000,-0.00012400000000000,-0.00010400000000000,-0.00008520000000000,-0.00000002560000000,-0.00000000963000000,0.00008240000000000,0.00014700000000000,-0.00001990000000000,-0.00018900000000000,0.26300000000000000,0.00072300000000000,-0.26600000000000000,0.00015000000000000,0.00075700000000000,0.61700000000000000,0.77500000000000000
250000.00000000000000000,-0.00012400000000000,-0.00010400000000000,-0.00008520000000000,-0.00000002560000000,-0.00000001000000000,0.00008240000000000,0.00014700000000000,-0.00002000000000000,-0.00018900000000000,0.26300000000000000,0.00072300000000000,-0.26700000000000000,0.00015000000000000,0.00075700000000000,0.61700000000000000,0.77500000000000000
250000.00000000000000000,-0.00012400000000000,-0.00010400000000000,-0.00008520000000000,-0.00000002510000000,-0.00000001810000000,0.00008240000000000,0.00014700000000000,-0.00001990000000000,-0.00018900000000000,0.26400000000000000,0.00072300000000000,-0.26700000000000000,0.00014500000000000,0.00075400000000000,0.61700000000000000,0.77600000000000000
250000.00000000000000000,-0.00012400000000000,-0.00010400000000000,-0.00008520000000000,-0.00000002480000000,-0.00000002190000000,0.00008240000000000,0.00014700000000000,-0.00002000000000000,-0.00018900000000000,0.26400000000000000,0.00072300000000000,-0.26700000000000000,0.00014300000000000,0.00075400000000000,0.61700000000000000,0.77600000000000000
251000.00000000000000000,-0.00012400000000000,-0.00010500000000000,-0.00008520000000000,-0.00000002510000000,-0.00000001720000000,0.00008240000000000,0.00014700000000000,-0.00002000000000000,-0.00018900000000000,0.26400000000000000,0.00072300000000000,-0.26700000000000000,0.00014600000000000,0.00075500000000000,0.61800000000000000,0.77600000000000000
251000.00000000000000000,-0.00012400000000000,-0.00010500000000000,-0.00008530000000000,-0.00000002560000000,-0.00000000953000000,0.00008250000000000,0.00014700000000000,-0.00002000000000000,-0.00019000000000000,0.26400000000000000,0.00072400000000000,-0.26700000000000000,0.00015100000000000,0.00075700000000000,0.61800000000000000,0.77700000000000000
251000.00000000000000000,-0.00012400000000000,-0.00010500000000000,-0.00008530000000000,-0.00000002510000000,-0.00000001580000000,0.00008250000000000,0.00014700000000000,-0.00002010000000000,-0.00019000000000000,0.26400000000000000,0.00072400000000000,-0.26800000000000000,0.00014800000000000,0.00075600000000000,0.61800000000000000,0.77700000000000000
251000.00000000000000000,-0.00012400000000000,-0.00010500000000000,-0.00008530000000000,-0.00000002460000000,-0.00000002430000000,0.00008250000000000,0.00014700000000000,-0.00002000000000000,-0.00019000000000000,0.26500000000000000,0.00072400000000000,-0.26800000000000000,0.00014400000000000,0.00075400000000000,0.61800000000000000,0.77700000000000000
251000.00000000000000000,-0.00012400000000000,-0.00010500000000000,-0.00008530000000000,-0.00000002470000000,-0.00000002220000000,0.00008250000000000,0.00014700000000000,-0.00002010000000000,-0.00019000000000000,0.26500000000000000,0.00072400000000000,-0.26800000000000000,0.00014600000000000,0.00075500000000000,0.61800000000000000,0.77700000000000000
251000.00000000000000000,-0.00012400000000000,-0.00010500000000000,-0.00008540000000000,-0.00000002510000000,-0.00000001570000000,0.00008250000000000,0.00014700000000000,-0.00002010000000000,-0.00019000000000000,0.26500000000000000,0.00072500000000000,-0.26800000000000000,0.00015000000000000,0.00075700000000000,0.61800000000000000,0.77800000000000000
251000.00000000000000000,-0.00012500000000000,-0.00010500000000000,-0.00008540000000000,-0.00000002530000000,-0.00000001310000000,0.00008250000000000,0.00014700000000000,-0.00002020000000000,-0.00019000000000000,0.26500000000000000,0.00072500000000000,-0.26900000000000000,0.00015100000000000,0.00075800000000000,0.61900000000000000,0.77800000000000000
251000.00000000000000000,-0.00012500000000000,-0.00010500000000000,-0.00008540000000000,-0.00000002470000000,-0.00000002210000000,0.00008250000000000,0.00014700000000000,-0.00002010000000000,-0.00019000000000000,0.26500000000000000,0.00072500000000000,-0.26900000000000000,0.00014600000000000,0.00075500000000000,0.61900000000000000,0.77800000000000000
251000.00000000000000000,-0.00012500000000000,-0.00010500000000000,-0.00008540000000000,-0.00000002440000000,-0.00000002720000000,0.00008250000000000,0.00014700000000000,-0.00002020000000000,-0.00019000000000000,0.26600000000000000,0.00072500000000000,-0.26900000000000000,0.00014300000000000,0.00075400000000000,0.61900000000000000,0.77900000000000000
251000.00000000000000000,-0.00012500000000000,-0.00010500000000000,-0.00008550000000000,-0.00000002490000000,-0.00000001950000000,0.00008260000000000,0.00014700000000000,-0.00002020000000000,-0.00019000000000000,0.26600000000000000,0.00072600000000000,-0.26900000000000000,0.00014700000000000,0.00075500000000000,0.61900000000000000,0.77900000000000000
252000.00000000000000000,-0.00012500000000000,-0.00010500000000000,-0.00008550000000000,-0.00000002530000000,-0.00000001400000000,0.00008260000000000,0.00014700000000000,-0.00002020000000000,-0.00019000000000000,0.26600000000000000,0.00072600000000000,-0.26900000000000000,0.00015000000000000,0.00075600000000000,0.61900000000000000,0.77900000000000000
252000.00000000000000000,-0.00012500000000000,-0.00010500000000000,-0.00008550000000000,-0.00000002520000000,-0.00000001590000000,0.00008260000000000,0.00014700000000000,-0.00002020000000000,-0.00019000000000000,0.26600000000000000,0.00072600000000000,-0.27000000000000000,0.00014800000000000,0.00075500000000000,0.61900000000000000,0.77900000000000000
252000.00000000000000000,-0.00012500000000000,-0.00010500000000000,-0.00008550000000000,-0.00000002480000000,-0.00000002320000000,0.00008260000000000,0.00014700000000000,-0.00002020000000000,-0.00019000000000000,0.26600000000000000,0.00072600000000000,-0.27000000000000000,0.00014400000000000,0.00075300000000000,0.62000000000000000,0.78000000000000000
252000.00000000000000000,-0.00012500000000000,-0.00010500000000000,-0.00008550000000000,-0.00000002490000000,-0.00000002190000000,0.00008260000000000,0.00014700000000000,-0.00002030000000000,-0.00019000000000000,0.26700000000000000,0.00072600000000000,-0.27000000000000000,0.00014400000000000,0.00075300000000000,0.62000000000000000,0.78000000000000000
252000.00000000000000000,-0.00012500000000000,-0.00010500000000000,-0.00008560000000000,-0.00000002560000000,-0.00000001170000000,0.00008260000000000,0.00014700000000000,-0.00002030000000000,-0.00019000000000000,0.26700000000000000,0.00072700000000000,-0.27000000000000000,0.00015000000000000,0.00075500000000000,0.62000000000000000,0.78000000000000000
252000.00000000000000000,-0.00012500000000000,-0.00010500000000000,-0.00008560000000000,-0.00000002580000000,-0.00000001070000000,0.00008260000000000,0.00014700000000000,-0.00002030000000000,-0.00019000000000000,0.26700000000000000,0.00072700000000000,-0.27000000000000000,0.00015100000000000,0.00075600000000000,0.62000000000000000,0.78000000000000000
252000.00000000000000000,-0.00012500000000000,-0.00010500000000000,-0.00008560000000000,-0.00000002530000000,-0.00000001710000000,0.00008260000000000,0.00014700000000000,-0.00002030000000000,-0.00019000000000000,0.26700000000000000,0.00072700000000000,-0.27100000000000000,0.00014800000000000,0.00075500000000000,0.62000000000000000,0.78100000000000000
252000.00000000000000000,-0.00012500000000000,-0.00010500000000000,-0.00008560000000000,-0.00000002500000000,-0.00000002250000000,0.00008270000000000,0.00014700000000000,-0.00002030000000000,-0.00019000000000000,0.26800000000000000,0.00072700000000000,-0.27100000000000000,0.00014500000000000,0.00075400000000000,0.62100000000000000,0.78100000000000000
252000.00000000000000000,-0.00012500000000000,-0.00010500000000000,-0.00008570000000000,-0.00000002530000000,-0.00000001850000000,0.00008270000000000,0.00014700000000000,-0.00002040000000000,-0.00019000000000000,0.26800000000000000,0.00072800000000000,-0.27100000000000000,0.00014800000000000,0.00075500000000000,0.62100000000000000,0.78100000000000000
252000.00000000000000000,-0.00012500000000000,-0.00010500000000000,-0.00008570000000000,-0.00000002570000000,-0.00000001190000000,0.00008270000000000,0.00014700000000000,-0.00002040000000000,-0.00019000000000000,0.26800000000000000,0.00072800000000000,-0.27100000000000000,0.00015300000000000,0.00075800000000000,0.62100000000000000,0.78200000000000000
253000.00000000000000000,-0.00012500000000000,-0.00010500000000000,-0.00008570000000000,-0.00000002530000000,-0.00000001780000000,0.00008270000000000,0.00014700000000000,-0.00002040000000000,-0.00019000000000000,0.26800000000000000,0.00072800000000000,-0.27100000000000000,0.00014900000000000,0.00075600000000000,0.62100000000000000,0.78200000000000000
253000.00000000000000000,-0.00012500000000000,-0.00010500000000000,-0.00008570000000000,-0.00000002480000000,-0.00000002550000000,0.00008270000000000,0.00014700000000000,-0.00002040000000000,-0.00019000000000000,0.26800000000000000,0.00072800000000000,-0.27200000000000000,0.00014500000000000,0.00075500000000000,0.62100000000000000,0.78200000000000000
253000.00000000000000000,-0.00012500000000000,-0.00010500000000000,-0.00008570000000000,-0.00000002480000000,-0.00000002560000000,0.00008270000000000,0.00014700000000000,-0.00002040000000000,-0.00019100000000000,0.26900000000000000,0.00072800000000000,-0.27200000000000000,0.00014500000000000,0.00075500000000000,0.62100000000000000,0.78200000000000000
253000.00000000000000000,-0.00012500000000000,-0.00010500000000000,-0.00008570000000000,-0.00000002530000000,-0.00000001850000000,0.00008270000000000,0.00014700000000000,-0.00002050000000000,-0.00019100000000000,0.26900000000000000,0.00072900000000000,-0.27200000000000000,0.00014900000000000,0.00075600000000000,0.62200000000000000,0.78300000000000000
253000.00000000000000000,-0.00012500000000000,-0.00010500000000000,-0.00008580000000000,-0.00000002560000000,-0.00000001420000000,0.00008270000000000,0.00014700000000000,-0.00002050000000000,-0.00019100000000000,0.26900000000000000,0.00072900000000000,-0.27200000000000000,0.00015100000000000,0.00075600000000000,0.62200000000000000,0.78300000000000000
253000.00000000000000000,-0.00012500000000000,-0.00010500000000000,-0.00008580000000000,-0.00000002510000000,-0.00000002110000000,0.00008280000000000,0.00014700000000000,-0.00002050000000000,-0.00019100000000000,0.26900000000000000,0.00072900000000000,-0.27300000000000000,0.00014600000000000,0.00075400000000000,0.62200000000000000,0.78300000000000000
253000.00000000000000000,-0.00012500000000000,-0.00010500000000000,-0.00008580000000000,-0.00000002490000000,-0.00000002340000000,0.00008280000000000,0.00014700000000000,-0.00002050000000000,-0.00019100000000000,0.26900000000000000,0.00072900000000000,-0.27300000000000000,0.00014500000000000,0.00075300000000000,0.62200000000000000,0.78400000000000000
253000.00000000000000000,-0.00012600000000000,-0.00010500000000000,-0.00008580000000000,-0.00000002540000000,-0.00000001660000000,0.00008280000000000,0.00014700000000000,-0.00002050000000000,-0.00019100000000000,0.27000000000000000,0.00072900000000000,-0.27300000000000000,0.00014800000000000,0.00075400000000000,0.62200000000000000,0.78400000000000000
253000.00000000000000000,-0.00012600000000000,-0.00010600000000000,-0.00008590000000000,-0.00000002590000000,-0.00000000959000000,0.00008280000000000,0.00014700000000000,-0.00002060000000000,-0.00019100000000000,0.27000000000000000,0.00073000000000000,-0.27300000000000000,0.00015200000000000,0.00075500000000000,0.62200000000000000,0.78400000000000000
253000.00000000000000000,-0.00012600000000000,-0.00010600000000000,-0.00008590000000000,-0.00000002580000000,-0.00000001070000000,0.00008280000000000,0.00014700000000000,-0.00002060000000000,-0.00019100000000000,0.27000000000000000,0.00073000000000000,-0.27300000000000000,0.00015200000000000,0.00075500000000000,0.62300000000000000,0.78400000000000000
254000.00000000000000000,-0.00012600000000000,-0.00010600000000000,-0.00008590000000000,-0.00000002530000000,-0.00000001940000000,0.00008280000000000,0.00014800000000000,-0.00002060000000000,-0.00019100000000000,0.27000000000000000,0.00073000000000000,-0.27400000000000000,0.00014700000000000,0.00075300000000000,0.62300000000000000,0.78500000000000000
254000.00000000000000000,-0.00012600000000000,-0.00010600000000000,-0.00008590000000000,-0.00000002530000000,-0.00000001970000000,0.00008280000000000,0.00014800000000000,-0.00002060000000000,-0.00019100000000000,0.27000000000000000,0.00073000000000000,-0.27400000000000000,0.00014800000000000,0.00075400000000000,0.62300000000000000,0.78500000000000000
254000.00000000000000000,-0.00012600000000000,-0.00010600000000000,-0.00008600000000000,-0.00000002580000000,-0.00000001320000000,0.00008280000000000,0.00014800000000000,-0.00002070000000000,-0.00019100000000000,0.27100000000000000,0.00073100000000000,-0.27400000000000000,0.00015200000000000,0.00075600000000000,0.62300000000000000,0.78500000000000000
254000.00000000000000000,-0.00012600000000000,-0.00010600000000000,-0.00008600000000000,-0.00000002580000000,-0.00000001320000000,0.00008290000000000,0.00014800000000000,-0.00002070000000000,-0.00019100000000000,0.27100000000000000,0.00073100000000000,-0.27400000000000000,0.00015200000000000,0.00075600000000000,0.62300000000000000,0.78600000000000000
254000.00000000000000000,-0.00012600000000000,-0.00010600000000000,-0.00008600000000000,-0.00000002530000000,-0.00000002020000000,0.00008290000000000,0.00014800000000000,-0.00002070000000000,-0.00019100000000000,0.27100000000000000,0.00073100000000000,-0.27400000000000000,0.00014900000000000,0.00075600000000000,0.62400000000000000,0.78600000000000000
254000.00000000000000000,-0.00012600000000000,-0.00010600000000000,-0.00008600000000000,-0.00000002480000000,-0.00000002720000000,0.00008290000000000,0.00014800000000000,-0.00002070000000000,-0.00019100000000000,0.27100000000000000,0.00073100000000000,-0.27500000000000000,0.00014500000000000,0.00075400000000000,0.62400000000000000,0.78600000000000000
254000.00000000000000000,-0.00012600000000000,-0.00010600000000000,-0.00008600000000000,-0.00000002510000000,-0.00000002270000000,0.00008290000000000,0.00014800000000000,-0.00002070000000000,-0.00019100000000000,0.27100000000000000,0.00073100000000000,-0.27500000000000000,0.00014800000000000,0.00075500000000000,0.62400000000000000,0.78600000000000000
254000.00000000000000000,-0.00012600000000000,-0.00010600000000000,-0.00008600000000000,-0.00000002550000000,-0.00000001570000000,0.00008290000000000,0.00014800000000000,-0.00002070000000000,-0.00019100000000000,0.27200000000000000,0.00073200000000000,-0.27500000000000000,0.00015200000000000,0.00075600000000000,0.62400000000000000,0.78700000000000000
254000.00000000000000000,-0.00012600000000000,-0.00010600000000000,-0.00008600000000000,-0.00000002520000000,-0.00000001850000000,0.00008290000000000,0.00014800000000000,-0.00002080000000000,-0.00019100000000000,0.27200000000000000,0.00073200000000000,-0.27500000000000000,0.00015000000000000,0.00075500000000000,0.62400000000000000,0.78700000000000000
254000.00000000000000000,-0.00012600000000000,-0.00010600000000000,-0.00008600000000000,-0.00000002480000000,-0.00000002390000000,0.00008290000000000,0.00014800000000000,-0.00002080000000000,-0.00019100000000000,0.27200000000000000,0.00073200000000000,-0.27500000000000000,0.00014600000000000,0.00075300000000000,0.62400000000000000,0.78700000000000000
255000.00000000000000000,-0.00012600000000000,-0.00010600000000000,-0.00008610000000000,-0.00000002490000000,-0.00000002400000000,0.00008290000000000,0.00014800000000000,-0.00002080000000000,-0.00019100000000000,0.27200000000000000,0.00073200000000000,-0.27600000000000000,0.00014600000000000,0.00075200000000000,0.62500000000000000,0.78800000000000000
255000.00000000000000000,-0.00012600000000000,-0.00010600000000000,-0.00008610000000000,-0.00000002570000000,-0.00000001510000000,0.00008290000000000,0.00014800000000000,-0.00002090000000000,-0.00019200000000000,0.27300000000000000,0.00073300000000000,-0.27600000000000000,0.00015100000000000,0.00075400000000000,0.62500000000000000,0.78800000000000000
255000.00000000000000000,-0.00012600000000000,-0.00010600000000000,-0.00008620000000000,-0.00000002630000000,-0.00000000989000000,0.00008300000000000,0.00014800000000000,-0.00002090000000000,-0.00019200000000000,0.27300000000000000,0.00073300000000000,-0.27600000000000000,0.00015300000000000,0.00075500000000000,0.62500000000000000,0.78800000000000000
255000.00000000000000000,-0.00012600000000000,-0.00010600000000000,-0.00008620000000000,-0.00000002610000000,-0.00000001510000000,0.00008300000000000,0.00014800000000000,-0.00002090000000000,-0.00019200000000000,0.27300000000000000,0.00073300000000000,-0.27600000000000000,0.00015000000000000,0.00075300000000000,0.62500000000000000,0.78800000000000000
255000.00000000000000000,-0.00012600000000000,-0.00010600000000000,-0.00008610000000000,-0.00000002590000000,-0.00000001790000000,0.00008300000000000,0.00014800000000000,-0.00002090000000000,-0.00019200000000000,0.27300000000000000,0.00073300000000000,-0.27700000000000000,0.00014800000000000,0.00075300000000000,0.62500000000000000,0.78900000000000000
255000.00000000000000000,-0.00012600000000000,-0.00010600000000000,-0.00008610000000000,-0.00000002600000000,-0.00000001400000000,0.00008300000000000,0.00014800000000000,-0.00002090000000000,-0.00019200000000000,0.27300000000000000,0.00073300000000000,-0.27700000000000000,0.00015100000000000,0.00075400000000000,0.62500000000000000,0.78900000000000000
255000.00000000000000000,-0.00012600000000000,-0.00010600000000000,-0.00008620000000000,-0.00000002600000000,-0.00000000883000000,0.00008300000000000,0.00014800000000000,-0.00002090000000000,-0.00019200000000000,0.27400000000000000,0.00073400000000000,-0.27700000000000000,0.00015500000000000,0.00075600000000000,0.62600000000000000,0.78900000000000000
255000.00000000000000000,-0.00012600000000000,-0.00010600000000000,-0.00008620000000000,-0.00000002530000000,-0.00000001320000000,0.00008300000000000,0.00014800000000000,-0.00002090000000000,-0.00019200000000000,0.27400000000000000,0.00073400000000000,-0.27700000000000000,0.00015300000000000,0.00075500000000000,0.62600000000000000,0.79000000000000000
255000.00000000000000000,-0.00012700000000000,-0.00010600000000000,-0.00008620000000000,-0.00000002420000000,-0.00000002550000000,0.00008300000000000,0.00014800000000000,-0.00002090000000000,-0.00019200000000000,0.27400000000000000,0.00073300000000000,-0.27700000000000000,0.00014800000000000,0.00075300000000000,0.62600000000000000,0.79000000000000000
255000.00000000000000000,-0.00012700000000000,-0.00010600000000000,-0.00008620000000000,-0.00000002390000000,-0.00000003000000000,0.00008300000000000,0.00014800000000000,-0.00002100000000000,-0.00019200000000000,0.27400000000000000,0.00073400000000000,-0.27800000000000000,0.00014700000000000,0.00075200000000000,0.62600000000000000,0.79000000000000000
256000.00000000000000000,-0.00012700000000000,-0.00010600000000000,-0.00008630000000000,-0.00000002430000000,-0.00000002670000000,0.00008310000000000,0.00014800000000000,-0.00002100000000000,-0.00019200000000000,0.27500000000000000,0.00073400000000000,-0.27800000000000000,0.00014900000000000,0.00075200000000000,0.62600000000000000,0.79100000000000000
256000.00000000000000000,-0.00012700000000000,-0.00010600000000000,-0.00008640000000000,-0.00000002490000000,-0.00000002430000000,0.00008310000000000,0.00014800000000000,-0.00002110000000000,-0.00019200000000000,0.27500000000000000,0.00073400000000000,-0.27800000000000000,0.00015100000000000,0.00075300000000000,0.62700000000000000,0.79100000000000000
256000.00000000000000000,-0.00012700000000000,-0.00010600000000000,-0.00008640000000000,-0.00000002510000000,-0.00000002740000000,0.00008310000000000,0.00014800000000000,-0.00002110000000000,-0.00019200000000000,0.27500000000000000,0.00073500000000000,-0.27900000000000000,0.00014800000000000,0.00075200000000000,0.62700000000000000,0.79100000000000000
256000.00000000000000000,-0.00012700000000000,-0.00010600000000000,-0.00008630000000000,-0.00000002520000000,-0.00000002940000000,0.00008310000000000,0.00014800000000000,-0.00002100000000000,-0.00019200000000000,0.27500000000000000,0.00073500000000000,-0.27900000000000000,0.00014600000000000,0.00075100000000000,0.62700000000000000,0.79200000000000000
256000.00000000000000000,-0.00012700000000000,-0.00010600000000000,-0.00008630000000000,-0.00000002580000000,-0.00000002100000000,0.00008310000000000,0.00014800000000000,-0.00002100000000000,-0.00019200000000000,0.27600000000000000,0.00073500000000000,-0.27900000000000000,0.00015000000000000,0.00075200000000000,0.62700000000000000,0.79200000000000000
256000.00000000000000000,-0.00012700000000000,-0.00010600000000000,-0.00008630000000000,-0.00000002630000000,-0.00000001100000000,0.00008310000000000,0.00014800000000000,-0.00002100000000000,-0.00019200000000000,0.27600000000000000,0.00073500000000000,-0.27900000000000000,0.00015500000000000,0.00075400000000000,0.62700000000000000,0.79200000000000000
256000.00000000000000000,-0.00012700000000000,-0.00010600000000000,-0.00008630000000000,-0.00000002620000000,-0.00000001050000000,0.00008320000000000,0.00014800000000000,-0.00002100000000000,-0.00019200000000000,0.27600000000000000,0.00073600000000000,-0.28000000000000000,0.00015500000000000,0.00075300000000000,0.62800000000000000,0.79300000000000000
256000.00000000000000000,-0.00012700000000000,-0.00010600000000000,-0.00008620000000000,-0.00000002560000000,-0.00000001560000000,0.00008320000000000,0.00014800000000000,-0.00002090000000000,-0.00019200000000000,0.27700000000000000,0.00073500000000000,-0.28000000000000000,0.00015200000000000,0.00075100000000000,0.62800000000000000,0.79300000000000000
256000.00000000000000000,-0.00012700000000000,-0.00010600000000000,-0.00008620000000000,-0.00000002520000000,-0.00000001860000000,0.00008320000000000,0.00014800000000000,-0.00002090000000000,-0.00019200000000000,0.27700000000000000,0.00073500000000000,-0.28000000000000000,0.00015100000000000,0.00075100000000000,0.62800000000000000,0.79300000000000000
256000.00000000000000000,-0.00012700000000000,-0.00010600000000000,-0.00008630000000000,-0.00000002520000000,-0.00000001400000000,0.00008320000000000,0.00014800000000000,-0.00002090000000000,-0.00019200000000000,0.27700000000000000,0.00073600000000000,-0.28000000000000000,0.00015500000000000,0.00075200000000000,0.62800000000000000,0.79400000000000000
257000.00000000000000000,-0.00012700000000000,-0.00010600000000000,-0.00008630000000000,-0.00000002510000000,-0.00000001370000000,0.00008320000000000,0.00014800000000000,-0.00002100000000000,-0.00019200000000000,0.27700000000000000,0.00073600000000000,-0.28100000000000000,0.00015500000000000,0.00075200000000000,0.62800000000000000,0.79400000000000000
257000.00000000000000000,-0.00012700000000000,-0.00010600000000000,-0.00008630000000000,-0.00000002420000000,-0.00000002240000000,0.00008320000000000,0.00014800000000000,-0.00002100000000000,-0.00019200000000000,0.27800000000000000,0.00073600000000000,-0.28100000000000000,0.00015100000000000,0.00075100000000000,0.62900000000000000,0.79400000000000000
257000.00000000000000000,-0.00012700000000000,-0.00010600000000000,-0.00008630000000000,-0.00000002350000000,-0.00000002980000000,0.00008320000000000,0.00014800000000000,-0.00002100000000000,-0.00019200000000000,0.27800000000000000,0.00073600000000000,-0.28100000000000000,0.00014800000000000,0.00075000000000000,0.62900000000000000,0.79400000000000000
257000.00000000000000000,-0.00012700000000000,-0.00010700000000000,-0.00008630000000000,-0.00000002360000000,-0.00000002880000000,0.00008330000000000,0.00014800000000000,-0.00002100000000000,-0.00019200000000000,0.27800000000000000,0.00073600000000000,-0.28100000000000000,0.00015000000000000,0.00075000000000000,0.62900000000000000,0.79500000000000000
257000.00000000000000000,-0.00012700000000000,-0.00010700000000000,-0.00008640000000000,-0.00000002400000000,-0.00000002230000000,0.00008330000000000,0.00014800000000000,-0.00002110000000000,-0.00019300000000000,0.27800000000000000,0.00073700000000000,-0.28200000000000000,0.00015400000000000,0.00075200000000000,0.62900000000000000,0.79500000000000000
257000.00000000000000000,-0.00012700000000000,-0.00010700000000000,-0.00008640000000000,-0.00000002400000000,-0.00000002190000000,0.00008330000000000,0.00014900000000000,-0.00002110000000000,-0.00019300000000000,0.27900000000000000,0.00073700000000000,-0.28200000000000000,0.00015400000000000,0.00075200000000000,0.62900000000000000,0.79500000000000000
257000.00000000000000000,-0.00012700000000000,-0.00010700000000000,-0.00008640000000000,-0.00000002360000000,-0.00000002740000000,0.00008330000000000,0.00014900000000000,-0.00002110000000000,-0.00019300000000000,0.27900000000000000,0.00073700000000000,-0.28200000000000000,0.00015100000000000,0.00075000000000000,0.62900000000000000,0.79600000000000000
257000.00000000000000000,-0.00012700000000000,-0.00010700000000000,-0.00008650000000000,-0.00000002380000000,-0.00000002620000000,0.00008330000000000,0.00014900000000000,-0.00002110000000000,-0.00019300000000000,0.27900000000000000,0.00073700000000000,-0.28200000000000000,0.00015100000000000,0.00074900000000000,0.63000000000000000,0.79600000000000000
257000.00000000000000000,-0.00012700000000000,-0.00010700000000000,-0.00008650000000000,-0.00000002440000000,-0.00000001920000000,0.00008330000000000,0.00014900000000000,-0.00002120000000000,-0.00019300000000000,0.27900000000000000,0.00073700000000000,-0.28300000000000000,0.00015500000000000,0.00075000000000000,0.63000000000000000,0.79600000000000000
257000.00000000000000000,-0.00012800000000000,-0.00010700000000000,-0.00008650000000000,-0.00000002480000000,-0.00000001350000000,0.00008330000000000,0.00014900000000000,-0.00002120000000000,-0.00019300000000000,0.28000000000000000,0.00073800000000000,-0.28300000000000000,0.00015800000000000,0.00075100000000000,0.63000000000000000,0.79700000000000000
258000.00000000000000000,-0.00012800000000000,-0.00010700000000000,-0.00008660000000000,-0.00000002470000000,-0.00000001770000000,0.00008330000000000,0.00014900000000000,-0.00002120000000000,-0.00019300000000000,0.28000000000000000,0.00073800000000000,-0.28300000000000000,0.00015500000000000,0.00074900000000000,0.63000000000000000,0.79700000000000000
258000.00000000000000000,-0.00012800000000000,-0.00010700000000000,-0.00008660000000000,-0.00000002430000000,-0.00000002430000000,0.00008340000000000,0.00014900000000000,-0.00002120000000000,-0.00019300000000000,0.28000000000000000,0.00073800000000000,-0.28300000000000000,0.00015100000000000,0.00074700000000000,0.63000000000000000,0.79700000000000000
258000.00000000000000000,-0.00012800000000000,-0.00010700000000000,-0.00008660000000000,-0.00000002450000000,-0.00000002300000000,0.00008340000000000,0.00014900000000000,-0.00002130000000000,-0.00019300000000000,0.28000000000000000,0.00073800000000000,-0.28400000000000000,0.00015200000000000,0.00074800000000000,0.63000000000000000,0.79700000000000000
258000.00000000000000000,-0.00012800000000000,-0.00010700000000000,-0.00008660000000000,-0.00000002480000000,-0.00000001940000000,0.00008340000000000,0.00014900000000000,-0.00002130000000000,-0.00019300000000000,0.28000000000000000,0.00073900000000000,-0.28400000000000000,0.00015400000000000,0.00074900000000000,0.63100000000000000,0.79800000000000000
258000.00000000000000000,-0.00012800000000000,-0.00010700000000000,-0.00008670000000000,-0.00000002480000000,-0.00000002130000000,0.00008340000000000,0.00014900000000000,-0.00002130000000000,-0.00019300000000000,0.28100000000000000,0.00073900000000000,-0.28400000000000000,0.00015300000000000,0.00074900000000000,0.63100000000000000,0.79800000000000000
258000.00000000000000000,-0.00012800000000000,-0.00010700000000000,-0.00008670000000000,-0.00000002430000000,-0.00000002930000000,0.00008340000000000,0.00014900000000000,-0.00002130000000000,-0.00019300000000000,0.28100000000000000,0.00073900000000000,-0.28400000000000000,0.00014900000000000,0.00074800000000000,0.63100000000000000,0.79800000000000000
258000.00000000000000000,-0.00012800000000000,-0.00010700000000000,-0.00008670000000000,-0.00000002410000000,-0.00000003310000000,0.00008340000000000,0.00014900000000000,-0.00002130000000000,-0.00019300000000000,0.28100000000000000,0.00073900000000000,-0.28400000000000000,0.00014700000000000,0.00074700000000000,0.63100000000000000,0.79900000000000000
258000.00000000000000000,-0.00012800000000000,-0.00010700000000000,-0.00008670000000000,-0.00000002470000000,-0.00000002710000000,0.00008340000000000,0.00014900000000000,-0.00002140000000000,-0.00019300000000000,0.28100000000000000,0.00073900000000000,-0.28500000000000000,0.00015100000000000,0.00074900000000000,0.63100000000000000,0.79900000000000000
258000.00000000000000000,-0.00012800000000000,-0.00010700000000000,-0.00008680000000000,-0.00000002500000000,-0.00000002270000000,0.00008350000000000,0.00014900000000000,-0.00002140000000000,-0.00019300000000000,0.28200000000000000,0.00074000000000000,-0.28500000000000000,0.00015400000000000,0.00075000000000000,0.63200000000000000,0.79900000000000000
258000.00000000000000000,-0.00012800000000000,-0.00010700000000000,-0.00008680000000000,-0.00000002510000000,-0.00000002450000000,0.00008350000000000,0.00014900000000000,-0.00002140000000000,-0.00019300000000000,0.28200000000000000,0.00074000000000000,-0.28500000000000000,0.00015300000000000,0.00075000000000000,0.63200000000000000,0.79900000000000000
259000.00000000000000000,-0.00012800000000000,-0.00010700000000000,-0.00008670000000000,-0.00000002490000000,-0.00000002790000000,0.00008350000000000,0.00014900000000000,-0.00002140000000000,-0.00019300000000000,0.28200000000000000,0.00074000000000000,-0.28500000000000000,0.00015100000000000,0.00075000000000000,0.63200000000000000,0.80000000000000000
259000.00000000000000000,-0.00012800000000000,-0.00010700000000000,-0.00008680000000000,-0.00000002510000000,-0.00000002480000000,0.00008350000000000,0.00014900000000000,-0.00002140000000000,-0.00019300000000000,0.28200000000000000,0.00074100000000000,-0.28600000000000000,0.00015300000000000,0.00075000000000000,0.63200000000000000,0.80000000000000000
259000.00000000000000000,-0.00012800000000000,-0.00010700000000000,-0.00008680000000000,-0.00000002580000000,-0.00000001640000000,0.00008350000000000,0.00014900000000000,-0.00002150000000000,-0.00019400000000000,0.28200000000000000,0.00074100000000000,-0.28600000000000000,0.00015700000000000,0.00075200000000000,0.63200000000000000,0.80000000000000000
259000.00000000000000000,-0.00012800000000000,-0.00010700000000000,-0.00008690000000000,-0.00000002600000000,-0.00000001500000000,0.00008350000000000,0.00014900000000000,-0.00002150000000000,-0.00019400000000000,0.28300000000000000,0.00074100000000000,-0.28600000000000000,0.00015700000000000,0.00075100000000000,0.63200000000000000,0.80100000000000000
259000.00000000000000000,-0.00012800000000000,-0.00010700000000000,-0.00008670000000000,-0.00000002600000000,-0.00000001980000000,0.00008350000000000,0.00014900000000000,-0.00002140000000000,-0.00019300000000000,0.28300000000000000,0.00074100000000000,-0.28600000000000000,0.00015300000000000,0.00075000000000000,0.63200000000000000,0.80100000000000000
259000.00000000000000000,-0.00012800000000000,-0.00010700000000000,-0.00008670000000000,-0.00000002580000000,-0.00000002200000000,0.00008350000000000,0.00014900000000000,-0.00002140000000000,-0.00019300000000000,0.28300000000000000,0.00074100000000000,-0.28600000000000000,0.00015200000000000,0.00074900000000000,0.63300000000000000,0.80100000000000000
259000.00000000000000000,-0.00012800000000000,-0.00010700000000000,-0.00008680000000000,-0.00000002560000000,-0.00000001730000000,0.00008350000000000,0.00014900000000000,-0.00002150000000000,-0.00019400000000000,0.28300000000000000,0.00074100000000000,-0.28600000000000000,0.00015400000000000,0.00075000000000000,0.63300000000000000,0.80100000000000000
259000.00000000000000000,-0.00012800000000000,-0.00010700000000000,-0.00008690000000000,-0.00000002670000000,-0.00000001060000000,0.00008350000000000,0.00014900000000000,-0.00002160000000000,-0.00019400000000000,0.28300000000000000,0.00074100000000000,-0.28700000000000000,0.00015700000000000,0.00075100000000000,0.63300000000000000,0.80100000000000000
259000.00000000000000000,-0.00012800000000000,-0.00010700000000000,-0.00008660000000000,-0.00000002710000000,-0.00000001210000000,0.00008360000000000,0.00014900000000000,-0.00002130000000000,-0.00019300000000000,0.28300000000000000,0.00074200000000000,-0.28700000000000000,0.00015500000000000,0.00075100000000000,0.63300000000000000,0.80200000000000000
259000.00000000000000000,-0.00012800000000000,-0.00010700000000000,-0.00008690000000000,-0.00000002600000000,-0.00000001690000000,0.00008360000000000,0.00014900000000000,-0.00002150000000000,-0.00019400000000000,0.28400000000000000,0.00074200000000000,-0.28700000000000000,0.00015300000000000,0.00075000000000000,0.63300000000000000,0.80200000000000000
260000.00000000000000000,-0.00012800000000000,-0.00010800000000000,-0.00008690000000000,-0.00000002740000000,-0.00000001130000000,0.00008360000000000,0.00014900000000000,-0.00002150000000000,-0.00019400000000000,0.28400000000000000,0.00074200000000000,-0.28700000000000000,0.00015500000000000,0.00075200000000000,0.63300000000000000,0.80200000000000000
260000.00000000000000000,-0.00012800000000000,-0.00010700000000000,-0.00008680000000000,-0.00000002870000000,-0.00000000152000000,0.00008360000000000,0.00014900000000000,-0.00002140000000000,-0.00019400000000000,0.28500000000000000,0.00074400000000000,-0.28800000000000000,0.00015800000000000,0.00075500000000000,0.63400000000000000,0.80300000000000000
260000.00000000000000000,-0.00012900000000000,-0.00010800000000000,-0.00008720000000000,-0.00000002940000000,0.00000000353000000,0.00008360000000000,0.00014900000000000,-0.00002180000000000,-0.00019400000000000,0.28500000000000000,0.00074400000000000,-0.28900000000000000,0.00015900000000000,0.00075800000000000,0.63400000000000000,0.80300000000000000
260000.00000000000000000,-0.00012900000000000,-0.00010800000000000,-0.00008690000000000,-0.00000003170000000,0.00000000553000000,0.00008370000000000,0.00014900000000000,-0.00002150000000000,-0.00019400000000000,0.28600000000000000,0.00074500000000000,-0.28900000000000000,0.00015600000000000,0.00076000000000000,0.63400000000000000,0.80400000000000000
260000.00000000000000000,-0.00012900000000000,-0.00010800000000000,-0.00008740000000000,-0.00000003270000000,0.00000000877000000,0.00008370000000000,0.00014900000000000,-0.00002190000000000,-0.00019400000000000,0.28700000000000000,0.00074600000000000,-0.29000000000000000,0.00015500000000000,0.00076300000000000,0.63500000000000000,0.80500000000000000
260000.00000000000000000,-0.00012900000000000,-0.00010800000000000,-0.00008720000000000,-0.00000003510000000,0.00000002320000000,0.00008380000000000,0.00015000000000000,-0.00002170000000000,-0.00019400000000000,0.28800000000000000,0.00074700000000000,-0.29100000000000000,0.00015900000000000,0.00076700000000000,0.63500000000000000,0.80600000000000000
260000.00000000000000000,-0.00012900000000000,-0.00010800000000000,-0.00008730000000000,-0.00000003610000000,0.00000003680000000,0.00008380000000000,0.00015000000000000,-0.00002180000000000,-0.00019500000000000,0.28800000000000000,0.00074900000000000,-0.29200000000000000,0.00016300000000000,0.00077100000000000,0.63500000000000000,0.80600000000000000
260000.00000000000000000,-0.00012900000000000,-0.00010800000000000,-0.00008730000000000,-0.00000003610000000,0.00000003460000000,0.00008380000000000,0.00015000000000000,-0.00002180000000000,-0.00019500000000000,0.28900000000000000,0.00074800000000000,-0.29200000000000000,0.00016100000000000,0.00077000000000000,0.63500000000000000,0.80700000000000000
260000.00000000000000000,-0.00012900000000000,-0.00010800000000000,-0.00008740000000000,-0.00000003590000000,0.00000002050000000,0.00008390000000000,0.00015000000000000,-0.00002180000000000,-0.00019500000000000,0.29000000000000000,0.00074900000000000,-0.29300000000000000,0.00015500000000000,0.00076600000000000,0.63600000000000000,0.80800000000000000
260000.00000000000000000,-0.00012900000000000,-0.00010800000000000,-0.00008760000000000,-0.00000003660000000,0.00000002220000000,0.00008390000000000,0.00015000000000000,-0.00002200000000000,-0.00019500000000000,0.29000000000000000,0.00074900000000000,-0.29400000000000000,0.00015500000000000,0.00076600000000000,0.63600000000000000,0.80800000000000000
261000.00000000000000000,-0.00012900000000000,-0.00010800000000000,-0.00008720000000000,-0.00000003790000000,0.00000003560000000,0.00008390000000000,0.00015000000000000,-0.00002160000000000,-0.00019500000000000,0.29100000000000000,0.00074900000000000,-0.29400000000000000,0.00016200000000000,0.00076800000000000,0.63600000000000000,0.80900000000000000
261000.00000000000000000,-0.00012900000000000,-0.00010800000000000,-0.00008730000000000,-0.00000003740000000,0.00000003790000000,0.00008400000000000,0.00015000000000000,-0.00002170000000000,-0.00019500000000000,0.29200000000000000,0.00074900000000000,-0.29500000000000000,0.00016400000000000,0.00076800000000000,0.63700000000000000,0.80900000000000000
261000.00000000000000000,-0.00012900000000000,-0.00010800000000000,-0.00008700000000000,-0.00000003650000000,0.00000003110000000,0.00008400000000000,0.00015000000000000,-0.00002140000000000,-0.00019500000000000,0.29200000000000000,0.00074900000000000,-0.29600000000000000,0.00016100000000000,0.00076600000000000,0.63700000000000000,0.81000000000000000
261000.00000000000000000,-0.00012900000000000,-0.00010800000000000,-0.00008720000000000,-0.00000003570000000,0.00000002400000000,0.00008400000000000,0.00015000000000000,-0.00002150000000000,-0.00019500000000000,0.29300000000000000,0.00074800000000000,-0.29600000000000000,0.00015900000000000,0.00076500000000000,0.63700000000000000,0.81000000000000000
261000.00000000000000000,-0.00012900000000000,-0.00010800000000000,-0.00008710000000000,-0.00000003560000000,0.00000002530000000,0.00008400000000000,0.00015000000000000,-0.00002140000000000,-0.00019500000000000,0.29300000000000000,0.00074900000000000,-0.29600000000000000,0.00016100000000000,0.00076500000000000,0.63700000000000000,0.81100000000000000
261000.00000000000000000,-0.00012900000000000,-0.00010800000000000,-0.00008720000000000,-0.00000003580000000,0.00000002760000000,0.00008410000000000,0.00015000000000000,-0.00002160000000000,-0.00019500000000000,0.29300000000000000,0.00074900000000000,-0.29700000000000000,0.00016300000000000,0.00076500000000000,0.63800000000000000,0.81100000000000000
261000.00000000000000000,-0.00012900000000000,-0.00010800000000000,-0.00008720000000000,-0.00000003560000000,0.00000002480000000,0.00008410000000000,0.00015000000000000,-0.00002150000000000,-0.00019500000000000,0.29400000000000000,0.00074900000000000,-0.29700000000000000,0.00016300000000000,0.00076500000000000,0.63800000000000000,0.81200000000000000
261000.00000000000000000,-0.00012900000000000,-0.00010800000000000,-0.00008730000000000,-0.00000003480000000,0.00000001630000000,0.00008410000000000,0.00015000000000000,-0.00002160000000000,-0.00019500000000000,0.29400000000000000,0.00074900000000000,-0.29700000000000000,0.00015900000000000,0.00076300000000000,0.63800000000000000,0.81200000000000000
261000.00000000000000000,-0.00012900000000000,-0.00010800000000000,-0.00008730000000000,-0.00000003480000000,0.00000001620000000,0.00008410000000000,0.00015000000000000,-0.00002160000000000,-0.00019500000000000,0.29400000000000000,0.00075000000000000,-0.29800000000000000,0.00016000000000000,0.00076300000000000,0.63800000000000000,0.81200000000000000
261000.00000000000000000,-0.00012900000000000,-0.00010800000000000,-0.00008730000000000,-0.00000003500000000,0.00000002210000000,0.00008410000000000,0.00015000000000000,-0.00002160000000000,-0.00019500000000000,0.29500000000000000,0.00075000000000000,-0.29800000000000000,0.00016400000000000,0.00076400000000000,0.63800000000000000,0.81300000000000000
262000.00000000000000000,-0.00012900000000000,-0.00010800000000000,-0.00008740000000000,-0.00000003520000000,0.00000002570000000,0.00008410000000000,0.00015000000000000,-0.00002170000000000,-0.00019500000000000,0.29500000000000000,0.00075000000000000,-0.29800000000000000,0.00016600000000000,0.00076500000000000,0.63900000000000000,0.81300000000000000
262000.00000000000000000,-0.00012900000000000,-0.00010800000000000,-0.00008740000000000,-0.00000003470000000,0.00000002130000000,0.00008410000000000,0.00015000000000000,-0.00002170000000000,-0.00019500000000000,0.29500000000000000,0.00075000000000000,-0.29900000000000000,0.00016400000000000,0.00076300000000000,0.63900000000000000,0.81300000000000000
262000.00000000000000000,-0.00013000000000000,-0.00010800000000000,-0.00008740000000000,-0.00000003430000000,0.00000001640000000,0.00008420000000000,0.00015000000000000,-0.00002170000000000,-0.00019500000000000,0.29500000000000000,0.00075000000000000,-0.29900000000000000,0.00016100000000000,0.00076200000000000,0.63900000000000000,0.81400000000000000
262000.00000000000000000,-0.00013000000000000,-0.00010800000000000,-0.00008740000000000,-0.00000003430000000,0.00000001880000000,0.00008420000000000,0.00015000000000000,-0.00002170000000000,-0.00019500000000000,0.29600000000000000,0.00075100000000000,-0.29900000000000000,0.00016200000000000,0.00076200000000000,0.63900000000000000,0.81400000000000000
262000.00000000000000000,-0.00013000000000000,-0.00010800000000000,-0.00008740000000000,-0.00000003460000000,0.00000002390000000,0.00008420000000000,0.00015000000000000,-0.00002180000000000,-0.00019500000000000,0.29600000000000000,0.00075100000000000,-0.29900000000000000,0.00016500000000000,0.00076200000000000,0.63900000000000000,0.81400000000000000
262000.00000000000000000,-0.00013000000000000,-0.00010800000000000,-0.00008740000000000,-0.00000003440000000,0.00000002210000000,0.00008420000000000,0.00015000000000000,-0.00002170000000000,-0.00019500000000000,0.29600000000000000,0.00075100000000000,-0.30000000000000000,0.00016400000000000,0.00076200000000000,0.63900000000000000,0.81400000000000000
262000.00000000000000000,-0.00013000000000000,-0.00010800000000000,-0.00008740000000000,-0.00000003390000000,0.00000001560000000,0.00008420000000000,0.00015000000000000,-0.00002170000000000,-0.00019500000000000,0.29600000000000000,0.00075100000000000,-0.30000000000000000,0.00016000000000000,0.00076000000000000,0.64000000000000000,0.81500000000000000
262000.00000000000000000,-0.00013000000000000,-0.00010800000000000,-0.00008740000000000,-0.00000003360000000,0.00000001270000000,0.00008420000000000,0.00015000000000000,-0.00002170000000000,-0.00019500000000000,0.29700000000000000,0.00075100000000000,-0.30000000000000000,0.00015900000000000,0.00076000000000000,0.64000000000000000,0.81500000000000000
262000.00000000000000000,-0.00013000000000000,-0.00010800000000000,-0.00008750000000000,-0.00000003380000000,0.00000001740000000,0.00008420000000000,0.00015000000000000,-0.00002180000000000,-0.00019500000000000,0.29700000000000000,0.00075200000000000,-0.30000000000000000,0.00016200000000000,0.00076100000000000,0.64000000000000000,0.81500000000000000
262000.00000000000000000,-0.00013000000000000,-0.00010900000000000,-0.00008750000000000,-0.00000003400000000,0.00000002130000000,0.00008430000000000,0.00015000000000000,-0.00002180000000000,-0.00019600000000000,0.29700000000000000,0.00075200000000000,-0.30100000000000000,0.00016500000000000,0.00076200000000000,0.64000000000000000,0.81600000000000000
263000.00000000000000000,-0.00013000000000000,-0.00010900000000000,-0.00008750000000000,-0.00000003370000000,0.00000001750000000,0.00008430000000000,0.00015100000000000,-0.00002180000000000,-0.00019600000000000,0.29700000000000000,0.00075200000000000,-0.30100000000000000,0.00016300000000000,0.00076200000000000,0.64000000000000000,0.81600000000000000
263000.00000000000000000,-0.00013000000000000,-0.00010900000000000,-0.00008750000000000,-0.00000003330000000,0.00000001300000000,0.00008430000000000,0.00015100000000000,-0.00002180000000000,-0.00019600000000000,0.29800000000000000,0.00075200000000000,-0.30100000000000000,0.00016100000000000,0.00076200000000000,0.64000000000000000,0.81600000000000000
263000.00000000000000000,-0.00013000000000000,-0.00010900000000000,-0.00008750000000000,-0.00000003340000000,0.00000001470000000,0.00008430000000000,0.00015100000000000,-0.00002180000000000,-0.00019600000000000,0.29800000000000000,0.00075200000000000,-0.30100000000000000,0.00016300000000000,0.00076200000000000,0.64100000000000000,0.81600000000000000
263000.00000000000000000,-0.00013000000000000,-0.00010900000000000,-0.00008760000000000,-0.00000003380000000,0.00000002050000000,0.00008430000000000,0.00015100000000000,-0.00002190000000000,-0.00019600000000000,0.29800000000000000,0.00075300000000000,-0.30100000000000000,0.00016600000000000,0.00076400000000000,0.64100000000000000,0.81700000000000000
263000.00000000000000000,-0.00013000000000000,-0.00010900000000000,-0.00008760000000000,-0.00000003380000000,0.00000002130000000,0.00008430000000000,0.00015100000000000,-0.00002190000000000,-0.00019600000000000,0.29800000000000000,0.00075300000000000,-0.30200000000000000,0.00016700000000000,0.00076400000000000,0.64100000000000000,0.81700000000000000
263000.00000000000000000,-0.00013000000000000,-0.00010900000000000,-0.00008760000000000,-0.00000003330000000,0.00000001500000000,0.00008430000000000,0.00015100000000000,-0.00002190000000000,-0.00019600000000000,0.29800000000000000,0.00075300000000000,-0.30200000000000000,0.00016400000000000,0.00076300000000000,0.64100000000000000,0.81700000000000000
263000.00000000000000000,-0.00013000000000000,-0.00010900000000000,-0.00008760000000000,-0.00000003300000000,0.00000001180000000,0.00008430000000000,0.00015100000000000,-0.00002190000000000,-0.00019600000000000,0.29900000000000000,0.00075300000000000,-0.30200000000000000,0.00016200000000000,0.00076200000000000,0.64100000000000000,0.81800000000000000
263000.00000000000000000,-0.00013000000000000,-0.00010900000000000,-0.00008760000000000,-0.00000003330000000,0.00000001550000000,0.00008440000000000,0.00015100000000000,-0.00002190000000000,-0.00019600000000000,0.29900000000000000,0.00075300000000000,-0.30200000000000000,0.00016400000000000,0.00076200000000000,0.64100000000000000,0.81800000000000000
263000.00000000000000000,-0.00013000000000000,-0.00010900000000000,-0.00008770000000000,-0.00000003350000000,0.00000001970000000,0.00008440000000000,0.00015100000000000,-0.00002200000000000,-0.00019600000000000,0.29900000000000000,0.00075400000000000,-0.30300000000000000,0.00016600000000000,0.00076200000000000,0.64200000000000000,0.81800000000000000
263000.00000000000000000,-0.00013000000000000,-0.00010900000000000,-0.00008770000000000,-0.00000003340000000,0.00000001760000000,0.00008440000000000,0.00015100000000000,-0.00002200000000000,-0.00019600000000000,0.29900000000000000,0.00075400000000000,-0.30300000000000000,0.00016500000000000,0.00076200000000000,0.64200000000000000,0.81800000000000000
264000.00000000000000000,-0.00013000000000000,-0.00010900000000000,-0.00008770000000000,-0.00000003290000000,0.00000001160000000,0.00008440000000000,0.00015100000000000,-0.00002200000000000,-0.00019600000000000,0.30000000000000000,0.00075400000000000,-0.30300000000000000,0.00016100000000000,0.00076000000000000,0.64200000000000000,0.81900000000000000
264000.00000000000000000,-0.00013000000000000,-0.00010900000000000,-0.00008770000000000,-0.00000003300000000,0.00000001250000000,0.00008440000000000,0.00015100000000000,-0.00002200000000000,-0.00019600000000000,0.30000000000000000,0.00075400000000000,-0.30300000000000000,0.00016100000000000,0.00076000000000000,0.64200000000000000,0.81900000000000000
264000.00000000000000000,-0.00013000000000000,-0.00010900000000000,-0.00008770000000000,-0.00000003340000000,0.00000001860000000,0.00008440000000000,0.00015100000000000,-0.00002200000000000,-0.00019600000000000,0.30000000000000000,0.00075500000000000,-0.30300000000000000,0.00016500000000000,0.00076100000000000,0.64200000000000000,0.81900000000000000
264000.00000000000000000,-0.00013100000000000,-0.00010900000000000,-0.00008780000000000,-0.00000003350000000,0.00000002130000000,0.00008440000000000,0.00015100000000000,-0.00002200000000000,-0.00019600000000000,0.30000000000000000,0.00075500000000000,-0.30400000000000000,0.00016700000000000,0.00076200000000000,0.64200000000000000,0.82000000000000000
264000.00000000000000000,-0.00013100000000000,-0.00010900000000000,-0.00008780000000000,-0.00000003320000000,0.00000001710000000,0.00008440000000000,0.00015100000000000,-0.00002210000000000,-0.00019600000000000,0.30000000000000000,0.00075500000000000,-0.30400000000000000,0.00016500000000000,0.00076200000000000,0.64200000000000000,0.82000000000000000
264000.00000000000000000,-0.00013100000000000,-0.00010900000000000,-0.00008780000000000,-0.00000003280000000,0.00000001220000000,0.00008450000000000,0.00015100000000000,-0.00002210000000000,-0.00019600000000000,0.30100000000000000,0.00075500000000000,-0.30400000000000000,0.00016300000000000,0.00076100000000000,0.64300000000000000,0.82000000000000000
264000.00000000000000000,-0.00013100000000000,-0.00010900000000000,-0.00008780000000000,-0.00000003290000000,0.00000001500000000,0.00008450000000000,0.00015100000000000,-0.00002210000000000,-0.00019600000000000,0.30100000000000000,0.00075500000000000,-0.30400000000000000,0.00016500000000000,0.00076200000000000,0.64300000000000000,0.82000000000000000
264000.00000000000000000,-0.00013100000000000,-0.00010900000000000,-0.00008790000000000,-0.00000003320000000,0.00000001930000000,0.00008450000000000,0.00015100000000000,-0.00002210000000000,-0.00019600000000000,0.30100000000000000,0.00075600000000000,-0.30500000000000000,0.00016800000000000,0.00076300000000000,0.64300000000000000,0.82100000000000000
264000.00000000000000000,-0.00013100000000000,-0.00010900000000000,-0.00008790000000000,-0.00000003290000000,0.00000001710000000,0.00008450000000000,0.00015100000000000,-0.00002210000000000,-0.00019600000000000,0.30100000000000000,0.00075600000000000,-0.30500000000000000,0.00016800000000000,0.00076300000000000,0.64300000000000000,0.82100000000000000
264000.00000000000000000,-0.00013100000000000,-0.00010900000000000,-0.00008790000000000,-0.00000003240000000,0.00000001030000000,0.00008450000000000,0.00015100000000000,-0.00002220000000000,-0.00019700000000000,0.30200000000000000,0.00075600000000000,-0.30500000000000000,0.00016400000000000,0.00076200000000000,0.64300000000000000,0.82100000000000000
265000.00000000000000000,-0.00013100000000000,-0.00010900000000000,-0.00008790000000000,-0.00000003210000000,0.00000000736000000,0.00008450000000000,0.00015100000000000,-0.00002220000000000,-0.00019700000000000,0.30200000000000000,0.00075600000000000,-0.30500000000000000,0.00016300000000000,0.00076200000000000,0.64300000000000000,0.82100000000000000
265000.00000000000000000,-0.00013100000000000,-0.00010900000000000,-0.00008790000000000,-0.00000003240000000,0.00000001190000000,0.00008450000000000,0.00015100000000000,-0.00002220000000000,-0.00019700000000000,0.30200000000000000,0.00075600000000000,-0.30500000000000000,0.00016500000000000,0.00076200000000000,0.64400000000000000,0.82200000000000000
265000.00000000000000000,-0.00013100000000000,-0.00010900000000000,-0.00008790000000000,-0.00000003270000000,0.00000001560000000,0.00008450000000000,0.00015100000000000,-0.00002220000000000,-0.00019700000000000,0.30200000000000000,0.00075700000000000,-0.30600000000000000,0.00016700000000000,0.00076300000000000,0.64400000000000000,0.82200000000000000
265000.00000000000000000,-0.00013100000000000,-0.00010900000000000,-0.00008790000000000,-0.00000003240000000,0.00000001240000000,0.00008460000000000,0.00015100000000000,-0.00002220000000000,-0.00019700000000000,0.30200000000000000,0.00075700000000000,-0.30600000000000000,0.00016500000000000,0.00076200000000000,0.64400000000000000,0.82200000000000000
265000.00000000000000000,-0.00013100000000000,-0.00010900000000000,-0.00008790000000000,-0.00000003210000000,0.00000000853000000,0.00008460000000000,0.00015100000000000,-0.00002220000000000,-0.00019700000000000,0.30300000000000000,0.00075700000000000,-0.30600000000000000,0.00016300000000000,0.00076000000000000,0.64400000000000000,0.82300000000000000
265000.00000000000000000,-0.00013100000000000,-0.00010900000000000,-0.00008800000000000,-0.00000003230000000,0.00000001100000000,0.00008460000000000,0.00015100000000000,-0.00002230000000000,-0.00019700000000000,0.30300000000000000,0.00075700000000000,-0.30600000000000000,0.00016400000000000,0.00076000000000000,0.64400000000000000,0.82300000000000000
265000.00000000000000000,-0.00013100000000000,-0.00010900000000000,-0.00008800000000000,-0.00000003280000000,0.00000001790000000,0.00008460000000000,0.00015100000000000,-0.00002230000000000,-0.00019700000000000,0.30300000000000000,0.00075800000000000,-0.30600000000000000,0.00016800000000000,0.00076100000000000,0.64400000000000000,0.82300000000000000
265000.00000000000000000,-0.00013100000000000,-0.00010900000000000,-0.00008800000000000,-0.00000003300000000,0.00000001980000000,0.00008460000000000,0.00015100000000000,-0.00002230000000000,-0.00019700000000000,0.30300000000000000,0.00075800000000000,-0.30700000000000000,0.00016900000000000,0.00076200000000000,0.64500000000000000,0.82300000000000000
265000.00000000000000000,-0.00013100000000000,-0.00010900000000000,-0.00008810000000000,-0.00000003260000000,0.00000001450000000,0.00008460000000000,0.00015100000000000,-0.00002230000000000,-0.00019700000000000,0.30300000000000000,0.00075800000000000,-0.30700000000000000,0.00016600000000000,0.00076100000000000,0.64500000000000000,0.82400000000000000
265000.00000000000000000,-0.00013100000000000,-0.00011000000000000,-0.00008810000000000,-0.00000003230000000,0.00000001140000000,0.00008460000000000,0.00015100000000000,-0.00002230000000000,-0.00019700000000000,0.30400000000000000,0.00075800000000000,-0.30700000000000000,0.00016500000000000,0.00076100000000000,0.64500000000000000,0.82400000000000000
266000.00000000000000000,-0.00013100000000000,-0.00011000000000000,-0.00008810000000000,-0.00000003250000000,0.00000001410000000,0.00008460000000000,0.00015100000000000,-0.00002240000000000,-0.00019700000000000,0.30400000000000000,0.00075800000000000,-0.30700000000000000,0.00016700000000000,0.00076100000000000,0.64500000000000000,0.82400000000000000
266000.00000000000000000,-0.00013100000000000,-0.00011000000000000,-0.00008810000000000,-0.00000003270000000,0.00000001730000000,0.00008460000000000,0.00015100000000000,-0.00002240000000000,-0.00019700000000000,0.30400000000000000,0.00075900000000000,-0.30800000000000000,0.00016900000000000,0.00076300000000000,0.64500000000000000,0.82400000000000000
266000.00000000000000000,-0.00013100000000000,-0.00011000000000000,-0.00008820000000000,-0.00000003240000000,0.00000001350000000,0.00008470000000000,0.00015100000000000,-0.00002240000000000,-0.00019700000000000,0.30400000000000000,0.00075900000000000,-0.30800000000000000,0.00016800000000000,0.00076300000000000,0.64500000000000000,0.82500000000000000
266000.00000000000000000,-0.00013200000000000,-0.00011000000000000,-0.00008810000000000,-0.00000003180000000,0.00000000622000000,0.00008470000000000,0.00015100000000000,-0.00002240000000000,-0.00019700000000000,0.30500000000000000,0.00075900000000000,-0.30800000000000000,0.00016400000000000,0.00076200000000000,0.64600000000000000,0.82500000000000000
266000.00000000000000000,-0.00013200000000000,-0.00011000000000000,-0.00008820000000000,-0.00000003170000000,0.00000000532000000,0.00008470000000000,0.00015100000000000,-0.00002240000000000,-0.00019700000000000,0.30500000000000000,0.00075900000000000,-0.30800000000000000,0.00016400000000000,0.00076200000000000,0.64600000000000000,0.82500000000000000
266000.00000000000000000,-0.00013200000000000,-0.00011000000000000,-0.00008820000000000,-0.00000003210000000,0.00000001010000000,0.00008470000000000,0.00015100000000000,-0.00002250000000000,-0.00019700000000000,0.30500000000000000,0.00076000000000000,-0.30800000000000000,0.00016700000000000,0.00076300000000000,0.64600000000000000,0.82600000000000000
266000.00000000000000000,-0.00013200000000000,-0.00011000000000000,-0.00008820000000000,-0.00000003230000000,0.00000001300000000,0.00008470000000000,0.00015100000000000,-0.00002250000000000,-0.00019700000000000,0.30500000000000000,0.00076000000000000,-0.30900000000000000,0.00016800000000000,0.00076300000000000,0.64600000000000000,0.82600000000000000
266000.00000000000000000,-0.00013200000000000,-0.00011000000000000,-0.00008820000000000,-0.00000003210000000,0.00000000972000000,0.00008470000000000,0.00015100000000000,-0.00002250000000000,-0.00019700000000000,0.30500000000000000,0.00076000000000000,-0.30900000000000000,0.00016600000000000,0.00076200000000000,0.64600000000000000,0.82600000000000000
266000.00000000000000000,-0.00013200000000000,-0.00011000000000000,-0.00008820000000000,-0.00000003190000000,0.00000000704000000,0.00008470000000000,0.00015200000000000,-0.00002250000000000,-0.00019700000000000,0.30600000000000000,0.00076000000000000,-0.30900000000000000,0.00016400000000000,0.00076100000000000,0.64600000000000000,0.82600000000000000
266000.00000000000000000,-0.00013200000000000,-0.00011000000000000,-0.00008830000000000,-0.00000003230000000,0.00000001170000000,0.00008470000000000,0.00015200000000000,-0.00002260000000000,-0.00019800000000000,0.30600000000000000,0.00076000000000000,-0.30900000000000000,0.00016700000000000,0.00076200000000000,0.64600000000000000,0.82700000000000000
267000.00000000000000000,-0.00013200000000000,-0.00011000000000000,-0.00008830000000000,-0.00000003280000000,0.00000001830000000,0.00008480000000000,0.00015200000000000,-0.00002260000000000,-0.00019800000000000,0.30600000000000000,0.00076100000000000,-0.31000000000000000,0.00017000000000000,0.00076200000000000,0.64700000000000000,0.82700000000000000
267000.00000000000000000,-0.00013200000000000,-0.00011000000000000,-0.00008830000000000,-0.00000003290000000,0.00000001900000000,0.00008480000000000,0.00015200000000000,-0.00002260000000000,-0.00019800000000000,0.30600000000000000,0.00076100000000000,-0.31000000000000000,0.00017000000000000,0.00076200000000000,0.64700000000000000,0.82700000000000000
267000.00000000000000000,-0.00013200000000000,-0.00011000000000000,-0.00008830000000000,-0.00000003250000000,0.00000001390000000,0.00008480000000000,0.00015200000000000,-0.00002260000000000,-0.00019800000000000,0.30700000000000000,0.00076100000000000,-0.31000000000000000,0.00016700000000000,0.00076100000000000,0.64700000000000000,0.82700000000000000
267000.00000000000000000,-0.00013200000000000,-0.00011000000000000,-0.00008830000000000,-0.00000003230000000,0.00000001140000000,0.00008480000000000,0.00015200000000000,-0.00002260000000000,-0.00019800000000000,0.30700000000000000,0.00076100000000000,-0.31000000000000000,0.00016600000000000,0.00076100000000000,0.64700000000000000,0.82800000000000000
267000.00000000000000000,-0.00013200000000000,-0.00011000000000000,-0.00008840000000000,-0.00000003250000000,0.00000001480000000,0.00008480000000000,0.00015200000000000,-0.00002270000000000,-0.00019800000000000,0.30700000000000000,0.00076200000000000,-0.31000000000000000,0.00016800000000000,0.00076200000000000,0.64700000000000000,0.82800000000000000
267000.00000000000000000,-0.00013200000000000,-0.00011000000000000,-0.00008840000000000,-0.00000003260000000,0.00000001640000000,0.00008480000000000,0.00015200000000000,-0.00002270000000000,-0.00019800000000000,0.30700000000000000,0.00076200000000000,-0.31100000000000000,0.00017000000000000,0.00076300000000000,0.64700000000000000,0.82800000000000000
267000.00000000000000000,-0.00013200000000000,-0.00011000000000000,-0.00008840000000000,-0.00000003220000000,0.00000001140000000,0.00008480000000000,0.00015200000000000,-0.00002270000000000,-0.00019800000000000,0.30700000000000000,0.00076200000000000,-0.31100000000000000,0.00016700000000000,0.00076200000000000,0.64800000000000000,0.82900000000000000
267000.00000000000000000,-0.00013200000000000,-0.00011000000000000,-0.00008840000000000,-0.00000003170000000,0.00000000493000000,0.00008480000000000,0.00015200000000000,-0.00002270000000000,-0.00019800000000000,0.30800000000000000,0.00076200000000000,-0.31100000000000000,0.00016400000000000,0.00076200000000000,0.64800000000000000,0.82900000000000000
267000.00000000000000000,-0.00013200000000000,-0.00011000000000000,-0.00008850000000000,-0.00000003170000000,0.00000000475000000,0.00008490000000000,0.00015200000000000,-0.00002270000000000,-0.00019800000000000,0.30800000000000000,0.00076200000000000,-0.31100000000000000,0.00016500000000000,0.00076200000000000,0.64800000000000000,0.82900000000000000
267000.00000000000000000,-0.00013200000000000,-0.00011000000000000,-0.00008850000000000,-0.00000003210000000,0.00000000991000000,0.00008490000000000,0.00015200000000000,-0.00002280000000000,-0.00019800000000000,0.30800000000000000,0.00076300000000000,-0.31200000000000000,0.00016800000000000,0.00076300000000000,0.64800000000000000,0.82900000000000000
268000.00000000000000000,-0.00013200000000000,-0.00011000000000000,-0.00008850000000000,-0.00000003220000000,0.00000001140000000,0.00008490000000000,0.00015200000000000,-0.00002280000000000,-0.00019800000000000,0.30800000000000000,0.00076300000000000,-0.31200000000000000,0.00016900000000000,0.00076400000000000,0.64800000000000000,0.83000000000000000
268000.00000000000000000,-0.00013200000000000,-0.00011000000000000,-0.00008850000000000,-0.00000003200000000,0.00000000796000000,0.00008490000000000,0.00015200000000000,-0.00002280000000000,-0.00019800000000000,0.30800000000000000,0.00076300000000000,-0.31200000000000000,0.00016700000000000,0.00076300000000000,0.64800000000000000,0.83000000000000000
268000.00000000000000000,-0.00013200000000000,-0.00011000000000000,-0.00008850000000000,-0.00000003190000000,0.00000000685000000,0.00008490000000000,0.00015200000000000,-0.00002280000000000,-0.00019800000000000,0.30900000000000000,0.00076300000000000,-0.31200000000000000,0.00016600000000000,0.00076200000000000,0.64800000000000000,0.83000000000000000
268000.00000000000000000,-0.00013300000000000,-0.00011000000000000,-0.00008860000000000,-0.00000003230000000,0.00000001200000000,0.00008490000000000,0.00015200000000000,-0.00002290000000000,-0.00019800000000000,0.30900000000000000,0.00076400000000000,-0.31200000000000000,0.00016900000000000,0.00076300000000000,0.64900000000000000,0.83000000000000000
268000.00000000000000000,-0.00013300000000000,-0.00011000000000000,-0.00008860000000000,-0.00000003280000000,0.00000001810000000,0.00008490000000000,0.00015200000000000,-0.00002290000000000,-0.00019800000000000,0.30900000000000000,0.00076400000000000,-0.31300000000000000,0.00017200000000000,0.00076400000000000,0.64900000000000000,0.83100000000000000
268000.00000000000000000,-0.00013300000000000,-0.00011000000000000,-0.00008860000000000,-0.00000003270000000,0.00000001720000000,0.00008490000000000,0.00015200000000000,-0.00002290000000000,-0.00019800000000000,0.30900000000000000,0.00076400000000000,-0.31300000000000000,0.00017100000000000,0.00076300000000000,0.64900000000000000,0.83100000000000000
268000.00000000000000000,-0.00013300000000000,-0.00011000000000000,-0.00008860000000000,-0.00000003240000000,0.00000001240000000,0.00008490000000000,0.00015200000000000,-0.00002290000000000,-0.00019800000000000,0.31000000000000000,0.00076400000000000,-0.31300000000000000,0.00016800000000000,0.00076200000000000,0.64900000000000000,0.83100000000000000
268000.00000000000000000,-0.00013300000000000,-0.00011100000000000,-0.00008860000000000,-0.00000003230000000,0.00000001170000000,0.00008500000000000,0.00015200000000000,-0.00002290000000000,-0.00019800000000000,0.31000000000000000,0.00076500000000000,-0.31300000000000000,0.00016800000000000,0.00076200000000000,0.64900000000000000,0.83200000000000000
268000.00000000000000000,-0.00013300000000000,-0.00011100000000000,-0.00008870000000000,-0.00000003260000000,0.00000001520000000,0.00008500000000000,0.00015200000000000,-0.00002300000000000,-0.00019900000000000,0.31000000000000000,0.00076500000000000,-0.31300000000000000,0.00017000000000000,0.00076200000000000,0.64900000000000000,0.83200000000000000
268000.00000000000000000,-0.00013300000000000,-0.00011100000000000,-0.00008870000000000,-0.00000003270000000,0.00000001590000000,0.00008500000000000,0.00015200000000000,-0.00002300000000000,-0.00019900000000000,0.31000000000000000,0.00076500000000000,-0.31400000000000000,0.00017000000000000,0.00076300000000000,0.65000000000000000,0.83200000000000000
269000.00000000000000000,-0.00013300000000000,-0.00011100000000000,-0.00008870000000000,-0.00000003220000000,0.00000001010000000,0.00008500000000000,0.00015200000000000,-0.00002300000000000,-0.00019900000000000,0.31000000000000000,0.00076500000000000,-0.31400000000000000,0.00016700000000000,0.00076200000000000,0.65000000000000000,0.83200000000000000
269000.00000000000000000,-0.00013300000000000,-0.00011100000000000,-0.00008870000000000,-0.00000003180000000,0.00000000509000000,0.00008500000000000,0.00015200000000000,-0.00002300000000000,-0.00019900000000000,0.31100000000000000,0.00076500000000000,-0.31400000000000000,0.00016500000000000,0.00076200000000000,0.65000000000000000,0.83300000000000000
269000.00000000000000000,-0.00013300000000000,-0.00011100000000000,-0.00008870000000000,-0.00000003200000000,0.00000000742000000,0.00008500000000000,0.00015200000000000,-0.00002300000000000,-0.00019900000000000,0.31100000000000000,0.00076600000000000,-0.31400000000000000,0.00016700000000000,0.00076300000000000,0.65000000000000000,0.83300000000000000
269000.00000000000000000,-0.00013300000000000,-0.00011100000000000,-0.00008880000000000,-0.00000003240000000,0.00000001240000000,0.00008500000000000,0.00015200000000000,-0.00002310000000000,-0.00019900000000000,0.31100000000000000,0.00076600000000000,-0.31500000000000000,0.00017000000000000,0.00076400000000000,0.65000000000000000,0.83300000000000000
269000.00000000000000000,-0.00013300000000000,-0.00011100000000000,-0.00008880000000000,-0.00000003230000000,0.00000001180000000,0.00008500000000000,0.00015200000000000,-0.00002300000000000,-0.00019900000000000,0.31100000000000000,0.00076600000000000,-0.31500000000000000,0.00017000000000000,0.00076400000000000,0.65000000000000000,0.83300000000000000
269000.00000000000000000,-0.00013300000000000,-0.00011100000000000,-0.00008880000000000,-0.00000003180000000,0.00000000566000000,0.00008510000000000,0.00015200000000000,-0.00002310000000000,-0.00019900000000000,0.31200000000000000,0.00076600000000000,-0.31500000000000000,0.00016700000000000,0.00076300000000000,0.65000000000000000,0.83400000000000000
269000.00000000000000000,-0.00013300000000000,-0.00011100000000000,-0.00008890000000000,-0.00000003190000000,0.00000000479000000,0.00008510000000000,0.00015200000000000,-0.00002310000000000,-0.00019900000000000,0.31200000000000000,0.00076700000000000,-0.31500000000000000,0.00016700000000000,0.00076300000000000,0.65100000000000000,0.83400000000000000
269000.00000000000000000,-0.00013300000000000,-0.00011100000000000,-0.00008890000000000,-0.00000003290000000,0.00000001490000000,0.00008510000000000,0.00015200000000000,-0.00002320000000000,-0.00019900000000000,0.31200000000000000,0.00076700000000000,-0.31600000000000000,0.00017100000000000,0.00076500000000000,0.65100000000000000,0.83400000000000000
269000.00000000000000000,-0.00013300000000000,-0.00011100000000000,-0.00008880000000000,-0.00000003320000000,0.00000002400000000,0.00008510000000000,0.00015200000000000,-0.00002310000000000,-0.00019900000000000,0.31300000000000000,0.00076700000000000,-0.31600000000000000,0.00017600000000000,0.00076700000000000,0.65100000000000000,0.83500000000000000
269000.00000000000000000,-0.00013300000000000,-0.00011100000000000,-0.00008880000000000,-0.00000003170000000,0.00000001650000000,0.00008510000000000,0.00015200000000000,-0.00002300000000000,-0.00019900000000000,0.31300000000000000,0.00076700000000000,-0.31700000000000000,0.00017300000000000,0.00076300000000000,0.65100000000000000,0.83500000000000000
270000.00000000000000000,-0.00013300000000000,-0.00011100000000000,-0.00008900000000000,-0.00000003050000000,0.00000000039600000,0.00008510000000000,0.00015200000000000,-0.00002320000000000,-0.00019900000000000,0.31400000000000000,0.00076700000000000,-0.31700000000000000,0.00016800000000000,0.00075800000000000,0.65100000000000000,0.83600000000000000
270000.00000000000000000,-0.00013400000000000,-0.00011100000000000,-0.00008900000000000,-0.00000003090000000,-0.00000000148000000,0.00008520000000000,0.00015200000000000,-0.00002330000000000,-0.00019900000000000,0.31400000000000000,0.00076700000000000,-0.31800000000000000,0.00016700000000000,0.00075700000000000,0.65200000000000000,0.83600000000000000
270000.00000000000000000,-0.00013400000000000,-0.00011100000000000,-0.00008910000000000,-0.00000003320000000,0.00000000621000000,0.00008520000000000,0.00015300000000000,-0.00002330000000000,-0.00019900000000000,0.31500000000000000,0.00076800000000000,-0.31800000000000000,0.00017000000000000,0.00075900000000000,0.65200000000000000,0.83700000000000000
270000.00000000000000000,-0.00013400000000000,-0.00011100000000000,-0.00008900000000000,-0.00000003370000000,0.00000000823000000,0.00008520000000000,0.00015300000000000,-0.00002320000000000,-0.00019900000000000,0.31500000000000000,0.00076800000000000,-0.31900000000000000,0.00017100000000000,0.00075900000000000,0.65200000000000000,0.83700000000000000
270000.00000000000000000,-0.00013400000000000,-0.00011100000000000,-0.00008890000000000,-0.00000003320000000,0.00000000336000000,0.00008530000000000,0.00015300000000000,-0.00002310000000000,-0.00019900000000000,0.31600000000000000,0.00076800000000000,-0.32000000000000000,0.00016800000000000,0.00075900000000000,0.65200000000000000,0.83800000000000000
270000.00000000000000000,-0.00013400000000000,-0.00011100000000000,-0.00008900000000000,-0.00000003260000000,-0.00000000147000000,0.00008530000000000,0.00015300000000000,-0.00002310000000000,-0.00019900000000000,0.31700000000000000,0.00076900000000000,-0.32000000000000000,0.00016600000000000,0.00075800000000000,0.65300000000000000,0.83800000000000000
270000.00000000000000000,-0.00013400000000000,-0.00011100000000000,-0.00008900000000000,-0.00000003370000000,0.00000000553000000,0.00008530000000000,0.00015300000000000,-0.00002310000000000,-0.00019900000000000,0.31700000000000000,0.00076900000000000,-0.32100000000000000,0.00016800000000000,0.00076000000000000,0.65300000000000000,0.83900000000000000
270000.00000000000000000,-0.00013400000000000,-0.00011100000000000,-0.00008910000000000,-0.00000003540000000,0.00000001320000000,0.00008540000000000,0.00015300000000000,-0.00002320000000000,-0.00020000000000000,0.31800000000000000,0.00077000000000000,-0.32100000000000000,0.00017100000000000,0.00076300000000000,0.65300000000000000,0.84000000000000000
270000.00000000000000000,-0.00013400000000000,-0.00011100000000000,-0.00008880000000000,-0.00000003590000000,0.00000001580000000,0.00008540000000000,0.00015300000000000,-0.00002290000000000,-0.00019900000000000,0.31900000000000000,0.00077000000000000,-0.32200000000000000,0.00017100000000000,0.00076500000000000,0.65300000000000000,0.84000000000000000
270000.00000000000000000,-0.00013400000000000,-0.00011100000000000,-0.00008920000000000,-0.00000003580000000,0.00000001680000000,0.00008540000000000,0.00015300000000000,-0.00002320000000000,-0.00020000000000000,0.31900000000000000,0.00077100000000000,-0.32300000000000000,0.00017000000000000,0.00076600000000000,0.65400000000000000,0.84100000000000000
271000.00000000000000000,-0.00013400000000000,-0.00011100000000000,-0.00008900000000000,-0.00000003720000000,0.00000002550000000,0.00008550000000000,0.00015300000000000,-0.00002300000000000,-0.00020000000000000,0.32000000000000000,0.00077100000000000,-0.32400000000000000,0.00017300000000000,0.00076900000000000,0.65400000000000000,0.84200000000000000
271000.00000000000000000,-0.00013400000000000,-0.00011100000000000,-0.00008920000000000,-0.00000003880000000,0.00000003930000000,0.00008550000000000,0.00015300000000000,-0.00002320000000000,-0.00020000000000000,0.32100000000000000,0.00077200000000000,-0.32400000000000000,0.00017800000000000,0.00077200000000000,0.65400000000000000,0.84200000000000000
271000.00000000000000000,-0.00013400000000000,-0.00011100000000000,-0.00008910000000000,-0.00000004000000000,0.00000004980000000,0.00008550000000000,0.00015300000000000,-0.00002300000000000,-0.00020000000000000,0.32100000000000000,0.00077300000000000,-0.32500000000000000,0.00018200000000000,0.00077400000000000,0.65400000000000000,0.84300000000000000
271000.00000000000000000,-0.00013400000000000,-0.00011100000000000,-0.00008910000000000,-0.00000003930000000,0.00000004810000000,0.00008560000000000,0.00015300000000000,-0.00002310000000000,-0.00020000000000000,0.32200000000000000,0.00077300000000000,-0.32500000000000000,0.00018100000000000,0.00077300000000000,0.65500000000000000,0.84300000000000000
271000.00000000000000000,-0.00013400000000000,-0.00011100000000000,-0.00008920000000000,-0.00000003880000000,0.00000004580000000,0.00008560000000000,0.00015300000000000,-0.00002320000000000,-0.00020000000000000,0.32200000000000000,0.00077300000000000,-0.32600000000000000,0.00017900000000000,0.00077100000000000,0.65500000000000000,0.84400000000000000
271000.00000000000000000,-0.00013400000000000,-0.00011100000000000,-0.00008920000000000,-0.00000003900000000,0.00000004880000000,0.00008560000000000,0.00015300000000000,-0.00002310000000000,-0.00020000000000000,0.32300000000000000,0.00077400000000000,-0.32600000000000000,0.00018100000000000,0.00077200000000000,0.65500000000000000,0.84400000000000000
271000.00000000000000000,-0.00013400000000000,-0.00011200000000000,-0.00008920000000000,-0.00000003960000000,0.00000005090000000,0.00008560000000000,0.00015300000000000,-0.00002320000000000,-0.00020000000000000,0.32300000000000000,0.00077400000000000,-0.32700000000000000,0.00018200000000000,0.00077200000000000,0.65500000000000000,0.84400000000000000
271000.00000000000000000,-0.00013400000000000,-0.00011100000000000,-0.00008920000000000,-0.00000003910000000,0.00000004630000000,0.00008560000000000,0.00015300000000000,-0.00002310000000000,-0.00020000000000000,0.32400000000000000,0.00077400000000000,-0.32700000000000000,0.00017900000000000,0.00077000000000000,0.65500000000000000,0.84500000000000000
271000.00000000000000000,-0.00013400000000000,-0.00011200000000000,-0.00008930000000000,-0.00000003800000000,0.00000003470000000,0.00008560000000000,0.00015300000000000,-0.00002320000000000,-0.00020000000000000,0.32400000000000000,0.00077400000000000,-0.32700000000000000,0.00017400000000000,0.00076800000000000,0.65500000000000000,0.84500000000000000
271000.00000000000000000,-0.00013400000000000,-0.00011200000000000,-0.00008930000000000,-0.00000003740000000,0.00000002830000000,0.00008570000000000,0.00015300000000000,-0.00002320000000000,-0.00020000000000000,0.32400000000000000,0.00077400000000000,-0.32800000000000000,0.00017100000000000,0.00076700000000000,0.65600000000000000,0.84500000000000000
272000.00000000000000000,-0.00013400000000000,-0.00011200000000000,-0.00008940000000000,-0.00000003780000000,0.00000003080000000,0.00008570000000000,0.00015300000000000,-0.00002330000000000,-0.00020000000000000,0.32400000000000000,0.00077500000000000,-0.32800000000000000,0.00017300000000000,0.00076800000000000,0.65600000000000000,0.84600000000000000
272000.00000000000000000,-0.00013400000000000,-0.00011200000000000,-0.00008940000000000,-0.00000003820000000,0.00000003210000000,0.00008570000000000,0.00015300000000000,-0.00002330000000000,-0.00020100000000000,0.32500000000000000,0.00077500000000000,-0.32800000000000000,0.00017500000000000,0.00076900000000000,0.65600000000000000,0.84600000000000000
272000.00000000000000000,-0.00013400000000000,-0.00011200000000000,-0.00008940000000000,-0.00000003780000000,0.00000002800000000,0.00008570000000000,0.00015400000000000,-0.00002330000000000,-0.00020100000000000,0.32500000000000000,0.00077500000000000,-0.32800000000000000,0.00017300000000000,0.00076900000000000,0.65600000000000000,0.84600000000000000
272000.00000000000000000,-0.00013500000000000,-0.00011200000000000,-0.00008940000000000,-0.00000003750000000,0.00000002410000000,0.00008570000000000,0.00015400000000000,-0.00002340000000000,-0.00020100000000000,0.32500000000000000,0.00077500000000000,-0.32900000000000000,0.00017200000000000,0.00076900000000000,0.65600000000000000,0.84700000000000000
272000.00000000000000000,-0.00013500000000000,-0.00011200000000000,-0.00008950000000000,-0.00000003770000000,0.00000002740000000,0.00008570000000000,0.00015400000000000,-0.00002340000000000,-0.00020100000000000,0.32500000000000000,0.00077600000000000,-0.32900000000000000,0.00017500000000000,0.00077000000000000,0.65600000000000000,0.84700000000000000
272000.00000000000000000,-0.00013500000000000,-0.00011200000000000,-0.00008950000000000,-0.00000003860000000,0.00000003640000000,0.00008580000000000,0.00015400000000000,-0.00002340000000000,-0.00020100000000000,0.32600000000000000,0.00077600000000000,-0.32900000000000000,0.00018000000000000,0.00077200000000000,0.65700000000000000,0.84700000000000000
272000.00000000000000000,-0.00013500000000000,-0.00011200000000000,-0.00008950000000000,-0.00000003880000000,0.00000003930000000,0.00008580000000000,0.00015400000000000,-0.00002340000000000,-0.00020100000000000,0.32600000000000000,0.00077600000000000,-0.33000000000000000,0.00018200000000000,0.00077200000000000,0.65700000000000000,0.84800000000000000
272000.00000000000000000,-0.00013500000000000,-0.00011200000000000,-0.00008950000000000,-0.00000003840000000,0.00000003640000000,0.00008580000000000,0.00015400000000000,-0.00002340000000000,-0.00020100000000000,0.32600000000000000,0.00077600000000000,-0.33000000000000000,0.00018000000000000,0.00077200000000000,0.65700000000000000,0.84800000000000000
272000.00000000000000000,-0.00013500000000000,-0.00011200000000000,-0.00008950000000000,-0.00000003800000000,0.00000003350000000,0.00008580000000000,0.00015400000000000,-0.00002340000000000,-0.00020100000000000,0.32600000000000000,0.00077600000000000,-0.33000000000000000,0.00017800000000000,0.00077100000000000,0.65700000000000000,0.84800000000000000
272000.00000000000000000,-0.00013500000000000,-0.00011200000000000,-0.00008950000000000,-0.00000003820000000,0.00000003610000000,0.00008580000000000,0.00015400000000000,-0.00002340000000000,-0.00020100000000000,0.32700000000000000,0.00077700000000000,-0.33000000000000000,0.00017900000000000,0.00077100000000000,0.65700000000000000,0.84800000000000000
273000.00000000000000000,-0.00013500000000000,-0.00011200000000000,-0.00008950000000000,-0.00000003850000000,0.00000003980000000,0.00008580000000000,0.00015400000000000,-0.00002340000000000,-0.00020100000000000,0.32700000000000000,0.00077700000000000,-0.33000000000000000,0.00018100000000000,0.00077100000000000,0.65700000000000000,0.84900000000000000
273000.00000000000000000,-0.00013500000000000,-0.00011200000000000,-0.00008950000000000,-0.00000003800000000,0.00000003630000000,0.00008580000000000,0.00015400000000000,-0.00002340000000000,-0.00020100000000000,0.32700000000000000,0.00077700000000000,-0.33100000000000000,0.00017900000000000,0.00077000000000000,0.65700000000000000,0.84900000000000000
273000.00000000000000000,-0.00013500000000000,-0.00011200000000000,-0.00008950000000000,-0.00000003720000000,0.00000002950000000,0.00008580000000000,0.00015400000000000,-0.00002340000000000,-0.00020100000000000,0.32700000000000000,0.00077700000000000,-0.33100000000000000,0.00017500000000000,0.00076800000000000,0.65800000000000000,0.84900000000000000
273000.00000000000000000,-0.00013500000000000,-0.00011200000000000,-0.00008950000000000,-0.00000003680000000,0.00000002700000000,0.00008590000000000,0.00015400000000000,-0.00002340000000000,-0.00020100000000000,0.32800000000000000,0.00077700000000000,-0.33100000000000000,0.00017400000000000,0.00076800000000000,0.65800000000000000,0.84900000000000000
273000.00000000000000000,-0.00013500000000000,-0.00011200000000000,-0.00008950000000000,-0.00000003700000000,0.00000003090000000,0.00008590000000000,0.00015400000000000,-0.00002340000000000,-0.00020100000000000,0.32800000000000000,0.00077700000000000,-0.33100000000000000,0.00017700000000000,0.00076800000000000,0.65800000000000000,0.85000000000000000
273000.00000000000000000,-0.00013500000000000,-0.00011200000000000,-0.00008950000000000,-0.00000003710000000,0.00000003410000000,0.00008590000000000,0.00015400000000000,-0.00002340000000000,-0.00020100000000000,0.32800000000000000,0.00077700000000000,-0.33200000000000000,0.00018000000000000,0.00076900000000000,0.65800000000000000,0.85000000000000000
273000.00000000000000000,-0.00013500000000000,-0.00011200000000000,-0.00008950000000000,-0.00000003660000000,0.00000003080000000,0.00008590000000000,0.00015400000000000,-0.00002340000000000,-0.00020100000000000,0.32800000000000000,0.00077800000000000,-0.33200000000000000,0.00017900000000000,0.00076800000000000,0.65800000000000000,0.85000000000000000
273000.00000000000000000,-0.00013500000000000,-0.00011200000000000,-0.00008960000000000,-0.00000003610000000,0.00000002700000000,0.00008590000000000,0.00015400000000000,-0.00002350000000000,-0.00020100000000000,0.32900000000000000,0.00077800000000000,-0.33200000000000000,0.00017800000000000,0.00076800000000000,0.65800000000000000,0.85100000000000000
273000.00000000000000000,-0.00013500000000000,-0.00011200000000000,-0.00008960000000000,-0.00000003620000000,0.00000002840000000,0.00008590000000000,0.00015400000000000,-0.00002350000000000,-0.00020100000000000,0.32900000000000000,0.00077800000000000,-0.33200000000000000,0.00018000000000000,0.00076900000000000,0.65800000000000000,0.85100000000000000
273000.00000000000000000,-0.00013500000000000,-0.00011200000000000,-0.00008970000000000,-0.00000003650000000,0.00000003230000000,0.00008590000000000,0.00015400000000000,-0.00002360000000000,-0.00020100000000000,0.32900000000000000,0.00077900000000000,-0.33300000000000000,0.00018300000000000,0.00077000000000000,0.65900000000000000,0.85100000000000000
274000.00000000000000000,-0.00013500000000000,-0.00011200000000000,-0.00008970000000000,-0.00000003650000000,0.00000003210000000,0.00008590000000000,0.00015400000000000,-0.00002360000000000,-0.00020100000000000,0.32900000000000000,0.00077900000000000,-0.33300000000000000,0.00018400000000000,0.00077000000000000,0.65900000000000000,0.85100000000000000
274000.00000000000000000,-0.00013500000000000,-0.00011200000000000,-0.00008970000000000,-0.00000003590000000,0.00000002500000000,0.00008590000000000,0.00015400000000000,-0.00002360000000000,-0.00020100000000000,0.32900000000000000,0.00077900000000000,-0.33300000000000000,0.00018000000000000,0.00076900000000000,0.65900000000000000,0.85200000000000000
274000.00000000000000000,-0.00013500000000000,-0.00011200000000000,-0.00008970000000000,-0.00000003560000000,0.00000002000000000,0.00008600000000000,0.00015400000000000,-0.00002370000000000,-0.00020200000000000,0.33000000000000000,0.00077900000000000,-0.33300000000000000,0.00017700000000000,0.00076800000000000,0.65900000000000000,0.85200000000000000
274000.00000000000000000,-0.00013600000000000,-0.00011200000000000,-0.00008980000000000,-0.00000003580000000,0.00000002120000000,0.00008600000000000,0.00015400000000000,-0.00002370000000000,-0.00020200000000000,0.33000000000000000,0.00077900000000000,-0.33300000000000000,0.00017800000000000,0.00076800000000000,0.65900000000000000,0.85200000000000000
274000.00000000000000000,-0.00013600000000000,-0.00011200000000000,-0.00008980000000000,-0.00000003600000000,0.00000002360000000,0.00008600000000000,0.00015400000000000,-0.00002370000000000,-0.00020200000000000,0.33000000000000000,0.00077900000000000,-0.33400000000000000,0.00017900000000000,0.00076800000000000,0.65900000000000000,0.85200000000000000
274000.00000000000000000,-0.00013600000000000,-0.00011200000000000,-0.00008980000000000,-0.00000003580000000,0.00000002220000000,0.00008600000000000,0.00015400000000000,-0.00002370000000000,-0.00020200000000000,0.33000000000000000,0.00078000000000000,-0.33400000000000000,0.00017800000000000,0.00076800000000000,0.66000000000000000,0.85300000000000000
274000.00000000000000000,-0.00013600000000000,-0.00011300000000000,-0.00008980000000000,-0.00000003540000000,0.00000001780000000,0.00008600000000000,0.00015400000000000,-0.00002370000000000,-0.00020200000000000,0.33100000000000000,0.00077900000000000,-0.33400000000000000,0.00017500000000000,0.00076700000000000,0.66000000000000000,0.85300000000000000
274000.00000000000000000,-0.00013600000000000,-0.00011300000000000,-0.00008980000000000,-0.00000003550000000,0.00000001940000000,0.00008600000000000,0.00015400000000000,-0.00002370000000000,-0.00020200000000000,0.33100000000000000,0.00078000000000000,-0.33400000000000000,0.00017500000000000,0.00076700000000000,0.66000000000000000,0.85300000000000000
274000.00000000000000000,-0.00013600000000000,-0.00011300000000000,-0.00008980000000000,-0.00000003600000000,0.00000002630000000,0.00008600000000000,0.00015400000000000,-0.00002370000000000,-0.00020200000000000,0.33100000000000000,0.00078000000000000,-0.33500000000000000,0.00017900000000000,0.00076700000000000,0.66000000000000000,0.85300000000000000
274000.00000000000000000,-0.00013600000000000,-0.00011300000000000,-0.00008980000000000,-0.00000003620000000,0.00000003130000000,0.00008610000000000,0.00015400000000000,-0.00002370000000000,-0.00020200000000000,0.33100000000000000,0.00078000000000000,-0.33500000000000000,0.00018200000000000,0.00076800000000000,0.66000000000000000,0.85400000000000000
275000.00000000000000000,-0.00013600000000000,-0.00011300000000000,-0.00008980000000000,-0.00000003580000000,0.00000003030000000,0.00008610000000000,0.00015400000000000,-0.00002370000000000,-0.00020200000000000,0.33200000000000000,0.00078000000000000,-0.33500000000000000,0.00018200000000000,0.00076700000000000,0.66000000000000000,0.85400000000000000
275000.00000000000000000,-0.00013600000000000,-0.00011300000000000,-0.00008980000000000,-0.00000003520000000,0.00000002600000000,0.00008610000000000,0.00015400000000000,-0.00002370000000000,-0.00020200000000000,0.33200000000000000,0.00078100000000000,-0.33500000000000000,0.00018100000000000,0.00076700000000000,0.66000000000000000,0.85400000000000000
275000.00000000000000000,-0.00013600000000000,-0.00011300000000000,-0.00008990000000000,-0.00000003520000000,0.00000002620000000,0.00008610000000000,0.00015400000000000,-0.00002380000000000,-0.00020200000000000,0.33200000000000000,0.00078100000000000,-0.33600000000000000,0.00018200000000000,0.00076700000000000,0.66100000000000000,0.85500000000000000
275000.00000000000000000,-0.00013600000000000,-0.00011300000000000,-0.00008990000000000,-0.00000003530000000,0.00000002830000000,0.00008610000000000,0.00015400000000000,-0.00002380000000000,-0.00020200000000000,0.33200000000000000,0.00078100000000000,-0.33600000000000000,0.00018500000000000,0.00076800000000000,0.66100000000000000,0.85500000000000000
275000.00000000000000000,-0.00013600000000000,-0.00011300000000000,-0.00008990000000000,-0.00000003500000000,0.00000002500000000,0.00008610000000000,0.00015400000000000,-0.00002380000000000,-0.00020200000000000,0.33200000000000000,0.00078100000000000,-0.33600000000000000,0.00018400000000000,0.00076800000000000,0.66100000000000000,0.85500000000000000
275000.00000000000000000,-0.00013600000000000,-0.00011300000000000,-0.00009000000000000,-0.00000003440000000,0.00000001730000000,0.00008610000000000,0.00015400000000000,-0.00002390000000000,-0.00020200000000000,0.33300000000000000,0.00078200000000000,-0.33600000000000000,0.00018000000000000,0.00076700000000000,0.66100000000000000,0.85500000000000000
275000.00000000000000000,-0.00013600000000000,-0.00011300000000000,-0.00009000000000000,-0.00000003420000000,0.00000001130000000,0.00008610000000000,0.00015400000000000,-0.00002390000000000,-0.00020200000000000,0.33300000000000000,0.00078200000000000,-0.33600000000000000,0.00017700000000000,0.00076700000000000,0.66100000000000000,0.85600000000000000
275000.00000000000000000,-0.00013600000000000,-0.00011300000000000,-0.00009000000000000,-0.00000003460000000,0.00000001290000000,0.00008620000000000,0.00015400000000000,-0.00002390000000000,-0.00020200000000000,0.33300000000000000,0.00078200000000000,-0.33700000000000000,0.00017800000000000,0.00076800000000000,0.66100000000000000,0.85600000000000000
275000.00000000000000000,-0.00013600000000000,-0.00011300000000000,-0.00009000000000000,-0.00000003490000000,0.00000001670000000,0.00008620000000000,0.00015500000000000,-0.00002390000000000,-0.00020200000000000,0.33300000000000000,0.00078200000000000,-0.33700000000000000,0.00018000000000000,0.00076800000000000,0.66100000000000000,0.85600000000000000
275000.00000000000000000,-0.00013600000000000,-0.00011300000000000,-0.00009000000000000,-0.00000003470000000,0.00000001690000000,0.00008620000000000,0.00015500000000000,-0.00002390000000000,-0.00020200000000000,0.33400000000000000,0.00078200000000000,-0.33700000000000000,0.00017900000000000,0.00076800000000000,0.66200000000000000,0.85600000000000000
276000.00000000000000000,-0.00013600000000000,-0.00011300000000000,-0.00009000000000000,-0.00000003450000000,0.00000001560000000,0.00008620000000000,0.00015500000000000,-0.00002390000000000,-0.00020200000000000,0.33400000000000000,0.00078200000000000,-0.33700000000000000,0.00017800000000000,0.00076700000000000,0.66200000000000000,0.85700000000000000
276000.00000000000000000,-0.00013600000000000,-0.00011300000000000,-0.00009000000000000,-0.00000003460000000,0.00000001780000000,0.00008620000000000,0.00015500000000000,-0.00002390000000000,-0.00020200000000000,0.33400000000000000,0.00078300000000000,-0.33800000000000000,0.00017800000000000,0.00076700000000000,0.66200000000000000,0.85700000000000000
276000.00000000000000000,-0.00013600000000000,-0.00011300000000000,-0.00009000000000000,-0.00000003480000000,0.00000002410000000,0.00008620000000000,0.00015500000000000,-0.00002390000000000,-0.00020200000000000,0.33400000000000000,0.00078300000000000,-0.33800000000000000,0.00018200000000000,0.00076700000000000,0.66200000000000000,0.85700000000000000
276000.00000000000000000,-0.00013600000000000,-0.00011300000000000,-0.00009000000000000,-0.00000003480000000,0.00000002760000000,0.00008620000000000,0.00015500000000000,-0.00002390000000000,-0.00020300000000000,0.33500000000000000,0.00078300000000000,-0.33800000000000000,0.00018500000000000,0.00076600000000000,0.66200000000000000,0.85800000000000000
276000.00000000000000000,-0.00013700000000000,-0.00011300000000000,-0.00009010000000000,-0.00000003430000000,0.00000002380000000,0.00008620000000000,0.00015500000000000,-0.00002400000000000,-0.00020300000000000,0.33500000000000000,0.00078300000000000,-0.33800000000000000,0.00018400000000000,0.00076500000000000,0.66200000000000000,0.85800000000000000
276000.00000000000000000,-0.00013700000000000,-0.00011300000000000,-0.00009020000000000,-0.00000003410000000,0.00000001930000000,0.00008620000000000,0.00015500000000000,-0.00002410000000000,-0.00020300000000000,0.33500000000000000,0.00078400000000000,-0.33900000000000000,0.00018200000000000,0.00076400000000000,0.66200000000000000,0.85800000000000000
276000.00000000000000000,-0.00013700000000000,-0.00011300000000000,-0.00009020000000000,-0.00000003440000000,0.00000001810000000,0.00008630000000000,0.00015500000000000,-0.00002410000000000,-0.00020300000000000,0.33500000000000000,0.00078400000000000,-0.33900000000000000,0.00018200000000000,0.00076500000000000,0.66300000000000000,0.85800000000000000
276000.00000000000000000,-0.00013700000000000,-0.00011300000000000,-0.00009020000000000,-0.00000003490000000,0.00000002040000000,0.00008630000000000,0.00015500000000000,-0.00002410000000000,-0.00020300000000000,0.33600000000000000,0.00078400000000000,-0.33900000000000000,0.00018300000000000,0.00076600000000000,0.66300000000000000,0.85900000000000000
276000.00000000000000000,-0.00013700000000000,-0.00011300000000000,-0.00009020000000000,-0.00000003480000000,0.00000001970000000,0.00008630000000000,0.00015500000000000,-0.00002410000000000,-0.00020300000000000,0.33600000000000000,0.00078500000000000,-0.34000000000000000,0.00018400000000000,0.00076700000000000,0.66300000000000000,0.85900000000000000
276000.00000000000000000,-0.00013700000000000,-0.00011300000000000,-0.00009020000000000,-0.00000003470000000,0.00000001580000000,0.00008630000000000,0.00015500000000000,-0.00002410000000000,-0.00020300000000000,0.33600000000000000,0.00078500000000000,-0.34000000000000000,0.00018100000000000,0.00076700000000000,0.66300000000000000,0.85900000000000000
277000.00000000000000000,-0.00013700000000000,-0.00011300000000000,-0.00009020000000000,-0.00000003450000000,0.00000001370000000,0.00008630000000000,0.00015500000000000,-0.00002400000000000,-0.00020300000000000,0.33700000000000000,0.00078500000000000,-0.34000000000000000,0.00018000000000000,0.00076800000000000,0.66300000000000000,0.86000000000000000
277000.00000000000000000,-0.00013700000000000,-0.00011300000000000,-0.00009010000000000,-0.00000003450000000,0.00000001630000000,0.00008630000000000,0.00015500000000000,-0.00002400000000000,-0.00020300000000000,0.33700000000000000,0.00078500000000000,-0.34000000000000000,0.00018100000000000,0.00076900000000000,0.66300000000000000,0.86000000000000000
277000.00000000000000000,-0.00013700000000000,-0.00011300000000000,-0.00009010000000000,-0.00000003390000000,0.00000001680000000,0.00008640000000000,0.00015500000000000,-0.00002400000000000,-0.00020300000000000,0.33700000000000000,0.00078500000000000,-0.34100000000000000,0.00018300000000000,0.00076800000000000,0.66300000000000000,0.86000000000000000
277000.00000000000000000,-0.00013700000000000,-0.00011300000000000,-0.00009020000000000,-0.00000003330000000,0.00000001560000000,0.00008640000000000,0.00015500000000000,-0.00002410000000000,-0.00020300000000000,0.33700000000000000,0.00078500000000000,-0.34100000000000000,0.00018300000000000,0.00076700000000000,0.66400000000000000,0.86100000000000000
277000.00000000000000000,-0.00013700000000000,-0.00011300000000000,-0.00009020000000000,-0.00000003290000000,0.00000001230000000,0.00008640000000000,0.00015500000000000,-0.00002410000000000,-0.00020300000000000,0.33800000000000000,0.00078500000000000,-0.34100000000000000,0.00018200000000000,0.00076600000000000,0.66400000000000000,0.86100000000000000
277000.00000000000000000,-0.00013700000000000,-0.00011300000000000,-0.00009020000000000,-0.00000003300000000,0.00000001220000000,0.00008640000000000,0.00015500000000000,-0.00002400000000000,-0.00020300000000000,0.33800000000000000,0.00078500000000000,-0.34200000000000000,0.00018200000000000,0.00076500000000000,0.66400000000000000,0.86100000000000000
277000.00000000000000000,-0.00013700000000000,-0.00011300000000000,-0.00009020000000000,-0.00000003320000000,0.00000001520000000,0.00008640000000000,0.00015500000000000,-0.00002410000000000,-0.00020300000000000,0.33800000000000000,0.00078600000000000,-0.34200000000000000,0.00018400000000000,0.00076400000000000,0.66400000000000000,0.86200000000000000
277000.00000000000000000,-0.00013700000000000,-0.00011400000000000,-0.00009030000000000,-0.00000003310000000,0.00000001730000000,0.00008640000000000,0.00015500000000000,-0.00002420000000000,-0.00020300000000000,0.33900000000000000,0.00078600000000000,-0.34200000000000000,0.00018600000000000,0.00076300000000000,0.66400000000000000,0.86200000000000000
277000.00000000000000000,-0.00013700000000000,-0.00011400000000000,-0.00009040000000000,-0.00000003330000000,0.00000001550000000,0.00008640000000000,0.00015500000000000,-0.00002430000000000,-0.00020300000000000,0.33900000000000000,0.00078600000000000,-0.34200000000000000,0.00018500000000000,0.00076200000000000,0.66400000000000000,0.86200000000000000
277000.00000000000000000,-0.00013700000000000,-0.00011400000000000,-0.00009040000000000,-0.00000003360000000,0.00000001300000000,0.00008650000000000,0.00015500000000000,-0.00002420000000000,-0.00020300000000000,0.33900000000000000,0.00078700000000000,-0.34300000000000000,0.00018300000000000,0.00076300000000000,0.66500000000000000,0.86200000000000000
278000.00000000000000000,-0.00013700000000000,-0.00011400000000000,-0.00009030000000000,-0.00000003370000000,0.00000001180000000,0.00008650000000000,0.00015500000000000,-0.00002420000000000,-0.00020300000000000,0.33900000000000000,0.00078700000000000,-0.34300000000000000,0.00018300000000000,0.00076300000000000,0.66500000000000000,0.86300000000000000
278000.00000000000000000,-0.00013700000000000,-0.00011400000000000,-0.00009040000000000,-0.00000003350000000,0.00000001200000000,0.00008650000000000,0.00015500000000000,-0.00002430000000000,-0.00020300000000000,0.34000000000000000,0.00078700000000000,-0.34300000000000000,0.00018300000000000,0.00076300000000000,0.66500000000000000,0.86300000000000000
278000.00000000000000000,-0.00013700000000000,-0.00011400000000000,-0.00009050000000000,-0.00000003380000000,0.00000001270000000,0.00008650000000000,0.00015500000000000,-0.00002440000000000,-0.00020400000000000,0.34000000000000000,0.00078700000000000,-0.34400000000000000,0.00018400000000000,0.00076400000000000,0.66500000000000000,0.86300000000000000
278000.00000000000000000,-0.00013700000000000,-0.00011400000000000,-0.00009050000000000,-0.00000003400000000,0.00000000825000000,0.00008650000000000,0.00015500000000000,-0.00002430000000000,-0.00020400000000000,0.34000000000000000,0.00078700000000000,-0.34400000000000000,0.00018100000000000,0.00076400000000000,0.66500000000000000,0.86400000000000000
278000.00000000000000000,-0.00013700000000000,-0.00011400000000000,-0.00009040000000000,-0.00000003400000000,0.00000000474000000,0.00008650000000000,0.00015500000000000,-0.00002420000000000,-0.00020400000000000,0.34100000000000000,0.00078700000000000,-0.34400000000000000,0.00017900000000000,0.00076500000000000,0.66500000000000000,0.86400000000000000
278000.00000000000000000,-0.00013700000000000,-0.00011400000000000,-0.00009040000000000,-0.00000003330000000,0.00000000404000000,0.00008650000000000,0.00015500000000000,-0.00002420000000000,-0.00020400000000000,0.34100000000000000,0.00078800000000000,-0.34400000000000000,0.00018000000000000,0.00076500000000000,0.66500000000000000,0.86400000000000000
278000.00000000000000000,-0.00013800000000000,-0.00011400000000000,-0.00009050000000000,-0.00000003300000000,0.00000000674000000,0.00008660000000000,0.00015500000000000,-0.00002430000000000,-0.00020400000000000,0.34100000000000000,0.00078800000000000,-0.34500000000000000,0.00018200000000000,0.00076500000000000,0.66600000000000000,0.86500000000000000
278000.00000000000000000,-0.00013800000000000,-0.00011400000000000,-0.00009050000000000,-0.00000003410000000,0.00000001280000000,0.00008660000000000,0.00015500000000000,-0.00002430000000000,-0.00020400000000000,0.34200000000000000,0.00078800000000000,-0.34500000000000000,0.00018500000000000,0.00076700000000000,0.66600000000000000,0.86500000000000000
278000.00000000000000000,-0.00013800000000000,-0.00011400000000000,-0.00009040000000000,-0.00000003480000000,0.00000001360000000,0.00008660000000000,0.00015500000000000,-0.00002420000000000,-0.00020400000000000,0.34200000000000000,0.00078800000000000,-0.34500000000000000,0.00018400000000000,0.00076700000000000,0.66600000000000000,0.86500000000000000
278000.00000000000000000,-0.00013800000000000,-0.00011400000000000,-0.00009030000000000,-0.00000003450000000,0.00000001510000000,0.00008660000000000,0.00015500000000000,-0.00002420000000000,-0.00020400000000000,0.34200000000000000,0.00078800000000000,-0.34600000000000000,0.00018500000000000,0.00076600000000000,0.66600000000000000,0.86600000000000000
279000.00000000000000000,-0.00013800000000000,-0.00011400000000000,-0.00009050000000000,-0.00000003380000000,0.00000001810000000,0.00008660000000000,0.00015500000000000,-0.00002430000000000,-0.00020400000000000,0.34300000000000000,0.00078900000000000,-0.34600000000000000,0.00018800000000000,0.00076500000000000,0.66600000000000000,0.86600000000000000
279000.00000000000000000,-0.00013800000000000,-0.00011400000000000,-0.00009070000000000,-0.00000003440000000,0.00000002470000000,0.00008660000000000,0.00015600000000000,-0.00002450000000000,-0.00020400000000000,0.34300000000000000,0.00079000000000000,-0.34700000000000000,0.00019100000000000,0.00076600000000000,0.66600000000000000,0.86600000000000000
279000.00000000000000000,-0.00013800000000000,-0.00011400000000000,-0.00009050000000000,-0.00000003570000000,0.00000002920000000,0.00008670000000000,0.00015600000000000,-0.00002430000000000,-0.00020400000000000,0.34300000000000000,0.00079000000000000,-0.34700000000000000,0.00019200000000000,0.00076700000000000,0.66700000000000000,0.86700000000000000
279000.00000000000000000,-0.00013800000000000,-0.00011400000000000,-0.00009040000000000,-0.00000003600000000,0.00000002500000000,0.00008670000000000,0.00015600000000000,-0.00002420000000000,-0.00020400000000000,0.34400000000000000,0.00079000000000000,-0.34700000000000000,0.00018800000000000,0.00076600000000000,0.66700000000000000,0.86700000000000000
279000.00000000000000000,-0.00013800000000000,-0.00011400000000000,-0.00009050000000000,-0.00000003480000000,0.00000001940000000,0.00008670000000000,0.00015600000000000,-0.00002430000000000,-0.00020400000000000,0.34400000000000000,0.00079000000000000,-0.34800000000000000,0.00018600000000000,0.00076400000000000,0.66700000000000000,0.86700000000000000
279000.00000000000000000,-0.00013800000000000,-0.00011400000000000,-0.00009080000000000,-0.00000003440000000,0.00000001780000000,0.00008670000000000,0.00015600000000000,-0.00002460000000000,-0.00020400000000000,0.34400000000000000,0.00079000000000000,-0.34800000000000000,0.00018600000000000,0.00076300000000000,0.66700000000000000,0.86800000000000000
279000.00000000000000000,-0.00013800000000000,-0.00011400000000000,-0.00009080000000000,-0.00000003560000000,0.00000001930000000,0.00008670000000000,0.00015600000000000,-0.00002460000000000,-0.00020400000000000,0.34500000000000000,0.00079100000000000,-0.34900000000000000,0.00018600000000000,0.00076500000000000,0.66700000000000000,0.86800000000000000
279000.00000000000000000,-0.00013800000000000,-0.00011400000000000,-0.00009060000000000,-0.00000003640000000,0.00000001610000000,0.00008680000000000,0.00015600000000000,-0.00002440000000000,-0.00020400000000000,0.34500000000000000,0.00079200000000000,-0.34900000000000000,0.00018400000000000,0.00076600000000000,0.66700000000000000,0.86900000000000000
279000.00000000000000000,-0.00013800000000000,-0.00011400000000000,-0.00009070000000000,-0.00000003610000000,0.00000000931000000,0.00008680000000000,0.00015600000000000,-0.00002440000000000,-0.00020400000000000,0.34600000000000000,0.00079200000000000,-0.34900000000000000,0.00018000000000000,0.00076600000000000,0.66700000000000000,0.86900000000000000
279000.00000000000000000,-0.00013800000000000,-0.00011400000000000,-0.00009070000000000,-0.00000003550000000,0.00000000646000000,0.00008680000000000,0.00015600000000000,-0.00002450000000000,-0.00020400000000000,0.34600000000000000,0.00079200000000000,-0.35000000000000000,0.00017900000000000,0.00076600000000000,0.66800000000000000,0.86900000000000000
280000.00000000000000000,-0.00013800000000000,-0.00011400000000000,-0.00009090000000000,-0.00000003610000000,0.00000001350000000,0.00008680000000000,0.00015600000000000,-0.00002470000000000,-0.00020500000000000,0.34700000000000000,0.00079200000000000,-0.35000000000000000,0.00018300000000000,0.00076800000000000,0.66800000000000000,0.87000000000000000
280000.00000000000000000,-0.00013800000000000,-0.00011400000000000,-0.00009080000000000,-0.00000003780000000,0.00000002200000000,0.00008680000000000,0.00015600000000000,-0.00002460000000000,-0.00020500000000000,0.34700000000000000,0.00079300000000000,-0.35100000000000000,0.00018600000000000,0.00077100000000000,0.66800000000000000,0.87000000000000000
280000.00000000000000000,-0.00013800000000000,-0.00011400000000000,-0.00009060000000000,-0.00000003830000000,0.00000002490000000,0.00008690000000000,0.00015600000000000,-0.00002440000000000,-0.00020500000000000,0.34700000000000000,0.00079300000000000,-0.35100000000000000,0.00018700000000000,0.00077100000000000,0.66800000000000000,0.87000000000000000
280000.00000000000000000,-0.00013800000000000,-0.00011400000000000,-0.00009070000000000,-0.00000003730000000,0.00000002450000000,0.00008690000000000,0.00015600000000000,-0.00002440000000000,-0.00020500000000000,0.34800000000000000,0.00079300000000000,-0.35100000000000000,0.00018800000000000,0.00077000000000000,0.66800000000000000,0.87100000000000000
280000.00000000000000000,-0.00013800000000000,-0.00011400000000000,-0.00009080000000000,-0.00000003650000000,0.00000002700000000,0.00008690000000000,0.00015600000000000,-0.00002450000000000,-0.00020500000000000,0.34800000000000000,0.00079300000000000,-0.35200000000000000,0.00019100000000000,0.00076800000000000,0.66800000000000000,0.87100000000000000
280000.00000000000000000,-0.00013900000000000,-0.00011500000000000,-0.00009100000000000,-0.00000003680000000,0.00000003190000000,0.00008690000000000,0.00015600000000000,-0.00002470000000000,-0.00020500000000000,0.34800000000000000,0.00079400000000000,-0.35200000000000000,0.00019400000000000,0.00076800000000000,0.66900000000000000,0.87200000000000000
280000.00000000000000000,-0.00013900000000000,-0.00011500000000000,-0.00009090000000000,-0.00000003740000000,0.00000003260000000,0.00008690000000000,0.00015600000000000,-0.00002460000000000,-0.00020500000000000,0.34900000000000000,0.00079400000000000,-0.35200000000000000,0.00019400000000000,0.00076800000000000,0.66900000000000000,0.87200000000000000
280000.00000000000000000,-0.00013900000000000,-0.00011500000000000,-0.00009090000000000,-0.00000003750000000,0.00000002770000000,0.00008690000000000,0.00015600000000000,-0.00002460000000000,-0.00020500000000000,0.34900000000000000,0.00079400000000000,-0.35300000000000000,0.00019100000000000,0.00076700000000000,0.66900000000000000,0.87200000000000000
280000.00000000000000000,-0.00013900000000000,-0.00011500000000000,-0.00009090000000000,-0.00000003720000000,0.00000002340000000,0.00008700000000000,0.00015600000000000,-0.00002460000000000,-0.00020500000000000,0.34900000000000000,0.00079400000000000,-0.35300000000000000,0.00018900000000000,0.00076500000000000,0.66900000000000000,0.87300000000000000
280000.00000000000000000,-0.00013900000000000,-0.00011500000000000,-0.00009100000000000,-0.00000003700000000,0.00000002210000000,0.00008700000000000,0.00015600000000000,-0.00002470000000000,-0.00020500000000000,0.35000000000000000,0.00079500000000000,-0.35300000000000000,0.00018800000000000,0.00076500000000000,0.66900000000000000,0.87300000000000000
281000.00000000000000000,-0.00013900000000000,-0.00011500000000000,-0.00009110000000000,-0.00000003750000000,0.00000002210000000,0.00008700000000000,0.00015600000000000,-0.00002480000000000,-0.00020500000000000,0.35000000000000000,0.00079500000000000,-0.35400000000000000,0.00018800000000000,0.00076500000000000,0.66900000000000000,0.87300000000000000
281000.00000000000000000,-0.00013900000000000,-0.00011500000000000,-0.00009100000000000,-0.00000003790000000,0.00000001930000000,0.00008700000000000,0.00015600000000000,-0.00002470000000000,-0.00020500000000000,0.35000000000000000,0.00079500000000000,-0.35400000000000000,0.00018600000000000,0.00076600000000000,0.67000000000000000,0.87400000000000000
281000.00000000000000000,-0.00013900000000000,-0.00011500000000000,-0.00009090000000000,-0.00000003760000000,0.00000001480000000,0.00008700000000000,0.00015600000000000,-0.00002460000000000,-0.00020500000000000,0.35100000000000000,0.00079500000000000,-0.35400000000000000,0.00018300000000000,0.00076700000000000,0.67000000000000000,0.87400000000000000
281000.00000000000000000,-0.00013900000000000,-0.00011500000000000,-0.00009090000000000,-0.00000003690000000,0.00000001150000000,0.00008700000000000,0.00015600000000000,-0.00002460000000000,-0.00020500000000000,0.35100000000000000,0.00079500000000000,-0.35500000000000000,0.00018300000000000,0.00076600000000000,0.67000000000000000,0.87400000000000000
281000.00000000000000000,-0.00013900000000000,-0.00011500000000000,-0.00009100000000000,-0.00000003660000000,0.00000001440000000,0.00008710000000000,0.00015600000000000,-0.00002470000000000,-0.00020500000000000,0.35100000000000000,0.00079500000000000,-0.35500000000000000,0.00018600000000000,0.00076700000000000,0.67000000000000000,0.87500000000000000
281000.00000000000000000,-0.00013900000000000,-0.00011500000000000,-0.00009100000000000,-0.00000003690000000,0.00000001780000000,0.00008710000000000,0.00015600000000000,-0.00002470000000000,-0.00020500000000000,0.35200000000000000,0.00079500000000000,-0.35500000000000000,0.00018800000000000,0.00076900000000000,0.67000000000000000,0.87500000000000000
281000.00000000000000000,-0.00013900000000000,-0.00011500000000000,-0.00009090000000000,-0.00000003700000000,0.00000001850000000,0.00008710000000000,0.00015600000000000,-0.00002460000000000,-0.00020500000000000,0.35200000000000000,0.00079600000000000,-0.35600000000000000,0.00018900000000000,0.00076900000000000,0.67000000000000000,0.87500000000000000
281000.00000000000000000,-0.00013900000000000,-0.00011500000000000,-0.00009100000000000,-0.00000003700000000,0.00000001990000000,0.00008710000000000,0.00015700000000000,-0.00002460000000000,-0.00020500000000000,0.35200000000000000,0.00079600000000000,-0.35600000000000000,0.00019000000000000,0.00076900000000000,0.67000000000000000,0.87500000000000000
281000.00000000000000000,-0.00013900000000000,-0.00011500000000000,-0.00009100000000000,-0.00000003660000000,0.00000002250000000,0.00008710000000000,0.00015700000000000,-0.00002460000000000,-0.00020500000000000,0.35300000000000000,0.00079600000000000,-0.35600000000000000,0.00019300000000000,0.00076800000000000,0.67100000000000000,0.87600000000000000
281000.00000000000000000,-0.00013900000000000,-0.00011500000000000,-0.00009110000000000,-0.00000003660000000,0.00000002820000000,0.00008710000000000,0.00015700000000000,-0.00002480000000000,-0.00020600000000000,0.35300000000000000,0.00079600000000000,-0.35700000000000000,0.00019700000000000,0.00076800000000000,0.67100000000000000,0.87600000000000000
282000.00000000000000000,-0.00013900000000000,-0.00011500000000000,-0.00009110000000000,-0.00000003680000000,0.00000003000000000,0.00008720000000000,0.00015700000000000,-0.00002470000000000,-0.00020600000000000,0.35300000000000000,0.00079700000000000,-0.35700000000000000,0.00019700000000000,0.00076800000000000,0.67100000000000000,0.87600000000000000
282000.00000000000000000,-0.00013900000000000,-0.00011500000000000,-0.00009100000000000,-0.00000003660000000,0.00000002720000000,0.00008720000000000,0.00015700000000000,-0.00002470000000000,-0.00020600000000000,0.35300000000000000,0.00079700000000000,-0.35700000000000000,0.00019500000000000,0.00076700000000000,0.67100000000000000,0.87700000000000000
282000.00000000000000000,-0.00013900000000000,-0.00011500000000000,-0.00009110000000000,-0.00000003650000000,0.00000002440000000,0.00008720000000000,0.00015700000000000,-0.00002470000000000,-0.00020600000000000,0.35400000000000000,0.00079700000000000,-0.35700000000000000,0.00019300000000000,0.00076500000000000,0.67100000000000000,0.87700000000000000
282000.00000000000000000,-0.00013900000000000,-0.00011500000000000,-0.00009110000000000,-0.00000003600000000,0.00000002270000000,0.00008720000000000,0.00015700000000000,-0.00002470000000000,-0.00020600000000000,0.35400000000000000,0.00079700000000000,-0.35800000000000000,0.00019300000000000,0.00076400000000000,0.67100000000000000,0.87700000000000000
282000.00000000000000000,-0.00013900000000000,-0.00011500000000000,-0.00009120000000000,-0.00000003580000000,0.00000002190000000,0.00008720000000000,0.00015700000000000,-0.00002480000000000,-0.00020600000000000,0.35400000000000000,0.00079700000000000,-0.35800000000000000,0.00019200000000000,0.00076400000000000,0.67100000000000000,0.87700000000000000
282000.00000000000000000,-0.00013900000000000,-0.00011500000000000,-0.00009110000000000,-0.00000003560000000,0.00000001760000000,0.00008720000000000,0.00015700000000000,-0.00002480000000000,-0.00020600000000000,0.35500000000000000,0.00079700000000000,-0.35800000000000000,0.00019000000000000,0.00076400000000000,0.67100000000000000,0.87800000000000000
282000.00000000000000000,-0.00013900000000000,-0.00011500000000000,-0.00009110000000000,-0.00000003530000000,0.00000001120000000,0.00008720000000000,0.00015700000000000,-0.00002480000000000,-0.00020600000000000,0.35500000000000000,0.00079800000000000,-0.35800000000000000,0.00018600000000000,0.00076300000000000,0.67200000000000000,0.87800000000000000
282000.00000000000000000,-0.00014000000000000,-0.00011500000000000,-0.00009120000000000,-0.00000003510000000,0.00000000805000000,0.00008720000000000,0.00015700000000000,-0.00002480000000000,-0.00020600000000000,0.35500000000000000,0.00079800000000000,-0.35900000000000000,0.00018500000000000,0.00076300000000000,0.67200000000000000,0.87800000000000000
282000.00000000000000000,-0.00014000000000000,-0.00011500000000000,-0.00009120000000000,-0.00000003520000000,0.00000000953000000,0.00008730000000000,0.00015700000000000,-0.00002480000000000,-0.00020600000000000,0.35500000000000000,0.00079800000000000,-0.35900000000000000,0.00018700000000000,0.00076400000000000,0.67200000000000000,0.87900000000000000
282000.00000000000000000,-0.00014000000000000,-0.00011500000000000,-0.00009130000000000,-0.00000003550000000,0.00000001220000000,0.00008730000000000,0.00015700000000000,-0.00002500000000000,-0.00020600000000000,0.35600000000000000,0.00079800000000000,-0.35900000000000000,0.00018900000000000,0.00076500000000000,0.67200000000000000,0.87900000000000000
283000.00000000000000000,-0.00014000000000000,-0.00011500000000000,-0.00009130000000000,-0.00000003590000000,0.00000001280000000,0.00008730000000000,0.00015700000000000,-0.00002490000000000,-0.00020600000000000,0.35600000000000000,0.00079900000000000,-0.35900000000000000,0.00018900000000000,0.00076500000000000,0.67200000000000000,0.87900000000000000
283000.00000000000000000,-0.00014000000000000,-0.00011500000000000,-0.00009130000000000,-0.00000003620000000,0.00000001280000000,0.00008730000000000,0.00015700000000000,-0.00002490000000000,-0.00020600000000000,0.35600000000000000,0.00079900000000000,-0.36000000000000000,0.00019000000000000,0.00076600000000000,0.67200000000000000,0.87900000000000000
283000.00000000000000000,-0.00014000000000000,-0.00011500000000000,-0.00009130000000000,-0.00000003640000000,0.00000001600000000,0.00008730000000000,0.00015700000000000,-0.00002490000000000,-0.00020600000000000,0.35600000000000000,0.00079900000000000,-0.36000000000000000,0.00019200000000000,0.00076700000000000,0.67200000000000000,0.88000000000000000
283000.00000000000000000,-0.00014000000000000,-0.00011500000000000,-0.00009140000000000,-0.00000003680000000,0.00000002130000000,0.00008730000000000,0.00015700000000000,-0.00002500000000000,-0.00020600000000000,0.35700000000000000,0.00080000000000000,-0.36000000000000000,0.00019500000000000,0.00076800000000000,0.67200000000000000,0.88000000000000000
283000.00000000000000000,-0.00014000000000000,-0.00011600000000000,-0.00009140000000000,-0.00000003720000000,0.00000002460000000,0.00008730000000000,0.00015700000000000,-0.00002500000000000,-0.00020600000000000,0.35700000000000000,0.00080000000000000,-0.36000000000000000,0.00019700000000000,0.00076800000000000,0.67300000000000000,0.88000000000000000
283000.00000000000000000,-0.00014000000000000,-0.00011500000000000,-0.00009130000000000,-0.00000003730000000,0.00000002370000000,0.00008740000000000,0.00015700000000000,-0.00002500000000000,-0.00020600000000000,0.35700000000000000,0.00080000000000000,-0.36100000000000000,0.00019500000000000,0.00076800000000000,0.67300000000000000,0.88000000000000000
283000.00000000000000000,-0.00014000000000000,-0.00011600000000000,-0.00009140000000000,-0.00000003720000000,0.00000002170000000,0.00008740000000000,0.00015700000000000,-0.00002500000000000,-0.00020600000000000,0.35700000000000000,0.00080000000000000,-0.36100000000000000,0.00019300000000000,0.00076800000000000,0.67300000000000000,0.88100000000000000
283000.00000000000000000,-0.00014000000000000,-0.00011500000000000,-0.00009130000000000,-0.00000003700000000,0.00000002200000000,0.00008740000000000,0.00015700000000000,-0.00002490000000000,-0.00020600000000000,0.35800000000000000,0.00080000000000000,-0.36100000000000000,0.00019300000000000,0.00076700000000000,0.67300000000000000,0.88100000000000000
283000.00000000000000000,-0.00014000000000000,-0.00011600000000000,-0.00009140000000000,-0.00000003680000000,0.00000002340000000,0.00008740000000000,0.00015700000000000,-0.00002500000000000,-0.00020600000000000,0.35800000000000000,0.00080000000000000,-0.36100000000000000,0.00019400000000000,0.00076700000000000,0.67300000000000000,0.88100000000000000
283000.00000000000000000,-0.00014000000000000,-0.00011600000000000,-0.00009140000000000,-0.00000003660000000,0.00000002170000000,0.00008740000000000,0.00015700000000000,-0.00002500000000000,-0.00020600000000000,0.35800000000000000,0.00080100000000000,-0.36200000000000000,0.00019300000000000,0.00076600000000000,0.67300000000000000,0.88100000000000000
284000.00000000000000000,-0.00014000000000000,-0.00011600000000000,-0.00009130000000000,-0.00000003620000000,0.00000001770000000,0.00008740000000000,0.00015700000000000,-0.00002500000000000,-0.00020600000000000,0.35800000000000000,0.00080100000000000,-0.36200000000000000,0.00019000000000000,0.00076600000000000,0.67300000000000000,0.88200000000000000
284000.00000000000000000,-0.00014000000000000,-0.00011600000000000,-0.00009140000000000,-0.00000003610000000,0.00000001580000000,0.00008740000000000,0.00015700000000000,-0.00002500000000000,-0.00020700000000000,0.35900000000000000,0.00080100000000000,-0.36200000000000000,0.00018900000000000,0.00076500000000000,0.67300000000000000,0.88200000000000000
284000.00000000000000000,-0.00014000000000000,-0.00011600000000000,-0.00009140000000000,-0.00000003600000000,0.00000001700000000,0.00008740000000000,0.00015700000000000,-0.00002500000000000,-0.00020700000000000,0.35900000000000000,0.00080100000000000,-0.36200000000000000,0.00019000000000000,0.00076500000000000,0.67400000000000000,0.88200000000000000
284000.00000000000000000,-0.00014000000000000,-0.00011600000000000,-0.00009150000000000,-0.00000003610000000,0.00000001950000000,0.00008740000000000,0.00015700000000000,-0.00002510000000000,-0.00020700000000000,0.35900000000000000,0.00080200000000000,-0.36300000000000000,0.00019200000000000,0.00076500000000000,0.67400000000000000,0.88300000000000000
284000.00000000000000000,-0.00014000000000000,-0.00011600000000000,-0.00009150000000000,-0.00000003630000000,0.00000001860000000,0.00008750000000000,0.00015700000000000,-0.00002510000000000,-0.00020700000000000,0.35900000000000000,0.00080200000000000,-0.36300000000000000,0.00019200000000000,0.00076500000000000,0.67400000000000000,0.88300000000000000
284000.00000000000000000,-0.00014000000000000,-0.00011600000000000,-0.00009150000000000,-0.00000003640000000,0.00000001670000000,0.00008750000000000,0.00015700000000000,-0.00002510000000000,-0.00020700000000000,0.36000000000000000,0.00080200000000000,-0.36300000000000000,0.00019200000000000,0.00076600000000000,0.67400000000000000,0.88300000000000000
284000.00000000000000000,-0.00014100000000000,-0.00011600000000000,-0.00009160000000000,-0.00000003660000000,0.00000001790000000,0.00008750000000000,0.00015700000000000,-0.00002520000000000,-0.00020700000000000,0.36000000000000000,0.00080300000000000,-0.36300000000000000,0.00019300000000000,0.00076600000000000,0.67400000000000000,0.88300000000000000
284000.00000000000000000,-0.00014100000000000,-0.00011600000000000,-0.00009160000000000,-0.00000003700000000,0.00000002160000000,0.00008750000000000,0.00015700000000000,-0.00002520000000000,-0.00020700000000000,0.36000000000000000,0.00080300000000000,-0.36400000000000000,0.00019600000000000,0.00076700000000000,0.67400000000000000,0.88400000000000000
284000.00000000000000000,-0.00014100000000000,-0.00011600000000000,-0.00009170000000000,-0.00000003710000000,0.00000002340000000,0.00008750000000000,0.00015700000000000,-0.00002530000000000,-0.00020700000000000,0.36000000000000000,0.00080300000000000,-0.36400000000000000,0.00019700000000000,0.00076800000000000,0.67400000000000000,0.88400000000000000
284000.00000000000000000,-0.00014100000000000,-0.00011600000000000,-0.00009160000000000,-0.00000003700000000,0.00000002180000000,0.00008750000000000,0.00015700000000000,-0.00002520000000000,-0.00020700000000000,0.36100000000000000,0.00080300000000000,-0.36400000000000000,0.00019600000000000,0.00076900000000000,0.67500000000000000,0.88400000000000000
285000.00000000000000000,-0.00014100000000000,-0.00011600000000000,-0.00009160000000000,-0.00000003660000000,0.00000001870000000,0.00008750000000000,0.00015700000000000,-0.00002520000000000,-0.00020700000000000,0.36100000000000000,0.00080300000000000,-0.36500000000000000,0.00019400000000000,0.00076900000000000,0.67500000000000000,0.88400000000000000
285000.00000000000000000,-0.00014100000000000,-0.00011600000000000,-0.00009160000000000,-0.00000003630000000,0.00000001920000000,0.00008760000000000,0.00015800000000000,-0.00002520000000000,-0.00020700000000000,0.36100000000000000,0.00080300000000000,-0.36500000000000000,0.00019500000000000,0.00076900000000000,0.67500000000000000,0.88500000000000000
285000.00000000000000000,-0.00014100000000000,-0.00011600000000000,-0.00009160000000000,-0.00000003610000000,0.00000002060000000,0.00008760000000000,0.00015800000000000,-0.00002520000000000,-0.00020700000000000,0.36100000000000000,0.00080300000000000,-0.36500000000000000,0.00019600000000000,0.00076800000000000,0.67500000000000000,0.88500000000000000
285000.00000000000000000,-0.00014100000000000,-0.00011600000000000,-0.00009170000000000,-0.00000003560000000,0.00000001800000000,0.00008760000000000,0.00015800000000000,-0.00002530000000000,-0.00020700000000000,0.36200000000000000,0.00080400000000000,-0.36500000000000000,0.00019500000000000,0.00076700000000000,0.67500000000000000,0.88500000000000000
285000.00000000000000000,-0.00014100000000000,-0.00011600000000000,-0.00009160000000000,-0.00000003520000000,0.00000001340000000,0.00008760000000000,0.00015800000000000,-0.00002520000000000,-0.00020700000000000,0.36200000000000000,0.00080400000000000,-0.36600000000000000,0.00019200000000000,0.00076600000000000,0.67500000000000000,0.88600000000000000
285000.00000000000000000,-0.00014100000000000,-0.00011600000000000,-0.00009170000000000,-0.00000003500000000,0.00000001110000000,0.00008760000000000,0.00015800000000000,-0.00002530000000000,-0.00020700000000000,0.36200000000000000,0.00080400000000000,-0.36600000000000000,0.00019100000000000,0.00076400000000000,0.67500000000000000,0.88600000000000000
285000.00000000000000000,-0.00014100000000000,-0.00011600000000000,-0.00009170000000000,-0.00000003550000000,0.00000001360000000,0.00008760000000000,0.00015800000000000,-0.00002530000000000,-0.00020700000000000,0.36300000000000000,0.00080400000000000,-0.36600000000000000,0.00019300000000000,0.00076400000000000,0.67500000000000000,0.88600000000000000
285000.00000000000000000,-0.00014100000000000,-0.00011600000000000,-0.00009180000000000,-0.00000003600000000,0.00000001720000000,0.00008760000000000,0.00015800000000000,-0.00002540000000000,-0.00020700000000000,0.36300000000000000,0.00080500000000000,-0.36600000000000000,0.00019500000000000,0.00076400000000000,0.67600000000000000,0.88600000000000000
285000.00000000000000000,-0.00014100000000000,-0.00011600000000000,-0.00009180000000000,-0.00000003630000000,0.00000001870000000,0.00008770000000000,0.00015800000000000,-0.00002540000000000,-0.00020800000000000,0.36300000000000000,0.00080500000000000,-0.36700000000000000,0.00019500000000000,0.00076400000000000,0.67600000000000000,0.88700000000000000
285000.00000000000000000,-0.00014100000000000,-0.00011600000000000,-0.00009180000000000,-0.00000003660000000,0.00000001810000000,0.00008770000000000,0.00015800000000000,-0.00002540000000000,-0.00020800000000000,0.36300000000000000,0.00080500000000000,-0.36700000000000000,0.00019400000000000,0.00076500000000000,0.67600000000000000,0.88700000000000000
286000.00000000000000000,-0.00014100000000000,-0.00011600000000000,-0.00009180000000000,-0.00000003680000000,0.00000001990000000,0.00008770000000000,0.00015800000000000,-0.00002540000000000,-0.00020800000000000,0.36400000000000000,0.00080500000000000,-0.36700000000000000,0.00019500000000000,0.00076600000000000,0.67600000000000000,0.88700000000000000
286000.00000000000000000,-0.00014100000000000,-0.00011600000000000,-0.00009180000000000,-0.00000003700000000,0.00000002370000000,0.00008770000000000,0.00015800000000000,-0.00002540000000000,-0.00020800000000000,0.36400000000000000,0.00080600000000000,-0.36800000000000000,0.00019700000000000,0.00076700000000000,0.67600000000000000,0.88800000000000000
286000.00000000000000000,-0.00014100000000000,-0.00011600000000000,-0.00009180000000000,-0.00000003670000000,0.00000002490000000,0.00008770000000000,0.00015800000000000,-0.00002540000000000,-0.00020800000000000,0.36400000000000000,0.00080600000000000,-0.36800000000000000,0.00019900000000000,0.00076800000000000,0.67600000000000000,0.88800000000000000
286000.00000000000000000,-0.00014100000000000,-0.00011600000000000,-0.00009180000000000,-0.00000003610000000,0.00000002140000000,0.00008770000000000,0.00015800000000000,-0.00002540000000000,-0.00020800000000000,0.36500000000000000,0.00080600000000000,-0.36800000000000000,0.00019700000000000,0.00076800000000000,0.67600000000000000,0.88800000000000000
286000.00000000000000000,-0.00014100000000000,-0.00011600000000000,-0.00009170000000000,-0.00000003530000000,0.00000001590000000,0.00008780000000000,0.00015800000000000,-0.00002530000000000,-0.00020800000000000,0.36500000000000000,0.00080600000000000,-0.36900000000000000,0.00019500000000000,0.00076800000000000,0.67600000000000000,0.88900000000000000
286000.00000000000000000,-0.00014100000000000,-0.00011600000000000,-0.00009180000000000,-0.00000003490000000,0.00000001300000000,0.00008780000000000,0.00015800000000000,-0.00002540000000000,-0.00020800000000000,0.36500000000000000,0.00080600000000000,-0.36900000000000000,0.00019500000000000,0.00076700000000000,0.67700000000000000,0.88900000000000000
286000.00000000000000000,-0.00014100000000000,-0.00011600000000000,-0.00009180000000000,-0.00000003470000000,0.00000001290000000,0.00008780000000000,0.00015800000000000,-0.00002540000000000,-0.00020800000000000,0.36600000000000000,0.00080700000000000,-0.36900000000000000,0.00019600000000000,0.00076600000000000,0.67700000000000000,0.88900000000000000
286000.00000000000000000,-0.00014100000000000,-0.00011700000000000,-0.00009190000000000,-0.00000003470000000,0.00000001320000000,0.00008780000000000,0.00015800000000000,-0.00002550000000000,-0.00020800000000000,0.36600000000000000,0.00080700000000000,-0.37000000000000000,0.00019700000000000,0.00076600000000000,0.67700000000000000,0.89000000000000000
286000.00000000000000000,-0.00014200000000000,-0.00011700000000000,-0.00009200000000000,-0.00000003510000000,0.00000001130000000,0.00008780000000000,0.00015800000000000,-0.00002550000000000,-0.00020800000000000,0.36600000000000000,0.00080700000000000,-0.37000000000000000,0.00019500000000000,0.00076600000000000,0.67700000000000000,0.89000000000000000
286000.00000000000000000,-0.00014200000000000,-0.00011700000000000,-0.00009190000000000,-0.00000003530000000,0.00000001120000000,0.00008780000000000,0.00015800000000000,-0.00002550000000000,-0.00020800000000000,0.36700000000000000,0.00080800000000000,-0.37000000000000000,0.00019500000000000,0.00076500000000000,0.67700000000000000,0.89000000000000000
287000.00000000000000000,-0.00014200000000000,-0.00011700000000000,-0.00009210000000000,-0.00000003630000000,0.00000001610000000,0.00008780000000000,0.00015800000000000,-0.00002560000000000,-0.00020800000000000,0.36700000000000000,0.00080800000000000,-0.37100000000000000,0.00019600000000000,0.00076500000000000,0.67700000000000000,0.89100000000000000
287000.00000000000000000,-0.00014200000000000,-0.00011700000000000,-0.00009200000000000,-0.00000003710000000,0.00000002200000000,0.00008790000000000,0.00015800000000000,-0.00002560000000000,-0.00020800000000000,0.36800000000000000,0.00080900000000000,-0.37100000000000000,0.00019900000000000,0.00076600000000000,0.67700000000000000,0.89100000000000000
287000.00000000000000000,-0.00014200000000000,-0.00011700000000000,-0.00009210000000000,-0.00000003780000000,0.00000002720000000,0.00008790000000000,0.00015800000000000,-0.00002560000000000,-0.00020800000000000,0.36800000000000000,0.00080900000000000,-0.37200000000000000,0.00020000000000000,0.00076700000000000,0.67800000000000000,0.89100000000000000
287000.00000000000000000,-0.00014200000000000,-0.00011700000000000,-0.00009210000000000,-0.00000003800000000,0.00000002690000000,0.00008790000000000,0.00015800000000000,-0.00002560000000000,-0.00020800000000000,0.36800000000000000,0.00080900000000000,-0.37200000000000000,0.00019900000000000,0.00076700000000000,0.67800000000000000,0.89200000000000000
287000.00000000000000000,-0.00014200000000000,-0.00011700000000000,-0.00009200000000000,-0.00000003790000000,0.00000002630000000,0.00008790000000000,0.00015800000000000,-0.00002550000000000,-0.00020800000000000,0.36900000000000000,0.00080900000000000,-0.37200000000000000,0.00019800000000000,0.00076700000000000,0.67800000000000000,0.89200000000000000
287000.00000000000000000,-0.00014200000000000,-0.00011700000000000,-0.00009210000000000,-0.00000003770000000,0.00000002800000000,0.00008790000000000,0.00015800000000000,-0.00002560000000000,-0.00020800000000000,0.36900000000000000,0.00080900000000000,-0.37300000000000000,0.00019900000000000,0.00076800000000000,0.67800000000000000,0.89200000000000000
287000.00000000000000000,-0.00014200000000000,-0.00011700000000000,-0.00009200000000000,-0.00000003760000000,0.00000002880000000,0.00008800000000000,0.00015800000000000,-0.00002550000000000,-0.00020800000000000,0.36900000000000000,0.00080900000000000,-0.37300000000000000,0.00020000000000000,0.00076900000000000,0.67800000000000000,0.89300000000000000
287000.00000000000000000,-0.00014200000000000,-0.00011700000000000,-0.00009210000000000,-0.00000003680000000,0.00000002450000000,0.00008800000000000,0.00015800000000000,-0.00002560000000000,-0.00020800000000000,0.37000000000000000,0.00080900000000000,-0.37300000000000000,0.00019800000000000,0.00076900000000000,0.67800000000000000,0.89300000000000000
287000.00000000000000000,-0.00014200000000000,-0.00011700000000000,-0.00009200000000000,-0.00000003610000000,0.00000001810000000,0.00008800000000000,0.00015800000000000,-0.00002550000000000,-0.00020800000000000,0.37000000000000000,0.00081000000000000,-0.37400000000000000,0.00019600000000000,0.00076800000000000,0.67800000000000000,0.89300000000000000
287000.00000000000000000,-0.00014200000000000,-0.00011700000000000,-0.00009200000000000,-0.00000003590000000,0.00000001550000000,0.00008800000000000,0.00015800000000000,-0.00002550000000000,-0.00020900000000000,0.37100000000000000,0.00081000000000000,-0.37400000000000000,0.00019500000000000,0.00076800000000000,0.67900000000000000,0.89400000000000000
288000.00000000000000000,-0.00014200000000000,-0.00011700000000000,-0.00009220000000000,-0.00000003570000000,0.00000001640000000,0.00008800000000000,0.00015900000000000,-0.00002570000000000,-0.00020900000000000,0.37100000000000000,0.00081100000000000,-0.37500000000000000,0.00019700000000000,0.00076800000000000,0.67900000000000000,0.89400000000000000
288000.00000000000000000,-0.00014200000000000,-0.00011700000000000,-0.00009210000000000,-0.00000003620000000,0.00000001820000000,0.00008800000000000,0.00015900000000000,-0.00002560000000000,-0.00020900000000000,0.37100000000000000,0.00081100000000000,-0.37500000000000000,0.00019900000000000,0.00076800000000000,0.67900000000000000,0.89400000000000000
288000.00000000000000000,-0.00014200000000000,-0.00011700000000000,-0.00009230000000000,-0.00000003640000000,0.00000001740000000,0.00008810000000000,0.00015900000000000,-0.00002580000000000,-0.00020900000000000,0.37200000000000000,0.00081200000000000,-0.37500000000000000,0.00019800000000000,0.00076800000000000,0.67900000000000000,0.89500000000000000
288000.00000000000000000,-0.00014200000000000,-0.00011700000000000,-0.00009230000000000,-0.00000003680000000,0.00000001920000000,0.00008810000000000,0.00015900000000000,-0.00002570000000000,-0.00020900000000000,0.37200000000000000,0.00081200000000000,-0.37600000000000000,0.00019900000000000,0.00076900000000000,0.67900000000000000,0.89500000000000000
288000.00000000000000000,-0.00014200000000000,-0.00011700000000000,-0.00009230000000000,-0.00000003780000000,0.00000002380000000,0.00008810000000000,0.00015900000000000,-0.00002580000000000,-0.00020900000000000,0.37200000000000000,0.00081200000000000,-0.37600000000000000,0.00020000000000000,0.00076900000000000,0.67900000000000000,0.89600000000000000
288000.00000000000000000,-0.00014300000000000,-0.00011700000000000,-0.00009240000000000,-0.00000003850000000,0.00000003100000000,0.00008810000000000,0.00015900000000000,-0.00002590000000000,-0.00020900000000000,0.37300000000000000,0.00081300000000000,-0.37700000000000000,0.00020400000000000,0.00076900000000000,0.67900000000000000,0.89600000000000000
288000.00000000000000000,-0.00014300000000000,-0.00011700000000000,-0.00009240000000000,-0.00000003930000000,0.00000003580000000,0.00008810000000000,0.00015900000000000,-0.00002580000000000,-0.00020900000000000,0.37300000000000000,0.00081300000000000,-0.37700000000000000,0.00020500000000000,0.00077000000000000,0.67900000000000000,0.89600000000000000
288000.00000000000000000,-0.00014300000000000,-0.00011700000000000,-0.00009240000000000,-0.00000003950000000,0.00000003610000000,0.00008820000000000,0.00015900000000000,-0.00002590000000000,-0.00020900000000000,0.37400000000000000,0.00081300000000000,-0.37700000000000000,0.00020300000000000,0.00077000000000000,0.68000000000000000,0.89700000000000000
288000.00000000000000000,-0.00014300000000000,-0.00011700000000000,-0.00009230000000000,-0.00000003940000000,0.00000003530000000,0.00008820000000000,0.00015900000000000,-0.00002580000000000,-0.00020900000000000,0.37400000000000000,0.00081300000000000,-0.37800000000000000,0.00020200000000000,0.00077000000000000,0.68000000000000000,0.89700000000000000
288000.00000000000000000,-0.00014300000000000,-0.00011700000000000,-0.00009240000000000,-0.00000003920000000,0.00000003530000000,0.00008820000000000,0.00015900000000000,-0.00002580000000000,-0.00020900000000000,0.37400000000000000,0.00081300000000000,-0.37800000000000000,0.00020200000000000,0.00077000000000000,0.68000000000000000,0.89700000000000000
289000.00000000000000000,-0.00014300000000000,-0.00011700000000000,-0.00009240000000000,-0.00000003900000000,0.00000003640000000,0.00008820000000000,0.00015900000000000,-0.00002580000000000,-0.00020900000000000,0.37500000000000000,0.00081300000000000,-0.37800000000000000,0.00020200000000000,0.00077000000000000,0.68000000000000000,0.89700000000000000
289000.00000000000000000,-0.00014300000000000,-0.00011700000000000,-0.00009230000000000,-0.00000003840000000,0.00000003240000000,0.00008820000000000,0.00015900000000000,-0.00002570000000000,-0.00020900000000000,0.37500000000000000,0.00081300000000000,-0.37900000000000000,0.00020100000000000,0.00077000000000000,0.68000000000000000,0.89800000000000000
289000.00000000000000000,-0.00014300000000000,-0.00011700000000000,-0.00009240000000000,-0.00000003770000000,0.00000002510000000,0.00008820000000000,0.00015900000000000,-0.00002580000000000,-0.00020900000000000,0.37500000000000000,0.00081400000000000,-0.37900000000000000,0.00019800000000000,0.00077000000000000,0.68000000000000000,0.89800000000000000
289000.00000000000000000,-0.00014300000000000,-0.00011700000000000,-0.00009230000000000,-0.00000003700000000,0.00000002050000000,0.00008830000000000,0.00015900000000000,-0.00002570000000000,-0.00020900000000000,0.37600000000000000,0.00081400000000000,-0.37900000000000000,0.00019700000000000,0.00076900000000000,0.68000000000000000,0.89800000000000000
289000.00000000000000000,-0.00014300000000000,-0.00011700000000000,-0.00009240000000000,-0.00000003690000000,0.00000002040000000,0.00008830000000000,0.00015900000000000,-0.00002580000000000,-0.00020900000000000,0.37600000000000000,0.00081400000000000,-0.38000000000000000,0.00019800000000000,0.00077000000000000,0.68100000000000000,0.89900000000000000
289000.00000000000000000,-0.00014300000000000,-0.00011800000000000,-0.00009250000000000,-0.00000003690000000,0.00000002130000000,0.00008830000000000,0.00015900000000000,-0.00002590000000000,-0.00021000000000000,0.37600000000000000,0.00081500000000000,-0.38000000000000000,0.00020000000000000,0.00077000000000000,0.68100000000000000,0.89900000000000000
289000.00000000000000000,-0.00014300000000000,-0.00011800000000000,-0.00009250000000000,-0.00000003690000000,0.00000002030000000,0.00008830000000000,0.00015900000000000,-0.00002590000000000,-0.00021000000000000,0.37600000000000000,0.00081500000000000,-0.38000000000000000,0.00020100000000000,0.00077000000000000,0.68100000000000000,0.89900000000000000
289000.00000000000000000,-0.00014300000000000,-0.00011800000000000,-0.00009260000000000,-0.00000003730000000,0.00000001970000000,0.00008830000000000,0.00015900000000000,-0.00002600000000000,-0.00021000000000000,0.37700000000000000,0.00081500000000000,-0.38000000000000000,0.00020000000000000,0.00077100000000000,0.68100000000000000,0.90000000000000000
289000.00000000000000000,-0.00014300000000000,-0.00011800000000000,-0.00009260000000000,-0.00000003760000000,0.00000002230000000,0.00008830000000000,0.00015900000000000,-0.00002600000000000,-0.00021000000000000,0.37700000000000000,0.00081600000000000,-0.38100000000000000,0.00020200000000000,0.00077100000000000,0.68100000000000000,0.90000000000000000
289000.00000000000000000,-0.00014300000000000,-0.00011800000000000,-0.00009270000000000,-0.00000003850000000,0.00000002910000000,0.00008840000000000,0.00015900000000000,-0.00002610000000000,-0.00021000000000000,0.37700000000000000,0.00081600000000000,-0.38100000000000000,0.00020500000000000,0.00077200000000000,0.68100000000000000,0.90000000000000000
290000.00000000000000000,-0.00014300000000000,-0.00011800000000000,-0.00009270000000000,-0.00000003920000000,0.00000003460000000,0.00008840000000000,0.00015900000000000,-0.00002610000000000,-0.00021000000000000,0.37800000000000000,0.00081700000000000,-0.38100000000000000,0.00020700000000000,0.00077200000000000,0.68100000000000000,0.90000000000000000
290000.00000000000000000,-0.00014300000000000,-0.00011800000000000,-0.00009260000000000,-0.00000003940000000,0.00000003590000000,0.00008840000000000,0.00015900000000000,-0.00002600000000000,-0.00021000000000000,0.37800000000000000,0.00081700000000000,-0.38200000000000000,0.00020700000000000,0.00077200000000000,0.68100000000000000,0.90100000000000000
290000.00000000000000000,-0.00014300000000000,-0.00011800000000000,-0.00009270000000000,-0.00000003930000000,0.00000003470000000,0.00008840000000000,0.00015900000000000,-0.00002610000000000,-0.00021000000000000,0.37800000000000000,0.00081700000000000,-0.38200000000000000,0.00020500000000000,0.00077100000000000,0.68200000000000000,0.90100000000000000
290000.00000000000000000,-0.00014300000000000,-0.00011800000000000,-0.00009260000000000,-0.00000003920000000,0.00000003520000000,0.00008840000000000,0.00015900000000000,-0.00002600000000000,-0.00021000000000000,0.37900000000000000,0.00081700000000000,-0.38200000000000000,0.00020400000000000,0.00077100000000000,0.68200000000000000,0.90100000000000000
290000.00000000000000000,-0.00014300000000000,-0.00011800000000000,-0.00009270000000000,-0.00000003920000000,0.00000003770000000,0.00008840000000000,0.00015900000000000,-0.00002600000000000,-0.00021000000000000,0.37900000000000000,0.00081700000000000,-0.38300000000000000,0.00020500000000000,0.00077100000000000,0.68200000000000000,0.90200000000000000
290000.00000000000000000,-0.00014300000000000,-0.00011800000000000,-0.00009260000000000,-0.00000003880000000,0.00000003610000000,0.00008840000000000,0.00015900000000000,-0.00002600000000000,-0.00021000000000000,0.37900000000000000,0.00081700000000000,-0.38300000000000000,0.00020500000000000,0.00077000000000000,0.68200000000000000,0.90200000000000000
290000.00000000000000000,-0.00014300000000000,-0.00011800000000000,-0.00009260000000000,-0.00000003790000000,0.00000002940000000,0.00008850000000000,0.00015900000000000,-0.00002600000000000,-0.00021000000000000,0.37900000000000000,0.00081700000000000,-0.38300000000000000,0.00020200000000000,0.00076900000000000,0.68200000000000000,0.90200000000000000
290000.00000000000000000,-0.00014300000000000,-0.00011800000000000,-0.00009270000000000,-0.00000003730000000,0.00000002370000000,0.00008850000000000,0.00015900000000000,-0.00002600000000000,-0.00021000000000000,0.38000000000000000,0.00081700000000000,-0.38300000000000000,0.00019900000000000,0.00076900000000000,0.68200000000000000,0.90200000000000000
290000.00000000000000000,-0.00014400000000000,-0.00011800000000000,-0.00009260000000000,-0.00000003700000000,0.00000002190000000,0.00008850000000000,0.00015900000000000,-0.00002600000000000,-0.00021000000000000,0.38000000000000000,0.00081800000000000,-0.38400000000000000,0.00020000000000000,0.00076900000000000,0.68200000000000000,0.90300000000000000
290000.00000000000000000,-0.00014400000000000,-0.00011800000000000,-0.00009270000000000,-0.00000003700000000,0.00000002290000000,0.00008850000000000,0.00015900000000000,-0.00002610000000000,-0.00021000000000000,0.38000000000000000,0.00081800000000000,-0.38400000000000000,0.00020200000000000,0.00076900000000000,0.68200000000000000,0.90300000000000000
291000.00000000000000000,-0.00014400000000000,-0.00011800000000000,-0.00009280000000000,-0.00000003720000000,0.00000002210000000,0.00008850000000000,0.00016000000000000,-0.00002620000000000,-0.00021000000000000,0.38100000000000000,0.00081800000000000,-0.38400000000000000,0.00020300000000000,0.00077000000000000,0.68200000000000000,0.90300000000000000
291000.00000000000000000,-0.00014400000000000,-0.00011800000000000,-0.00009280000000000,-0.00000003720000000,0.00000001920000000,0.00008850000000000,0.00016000000000000,-0.00002620000000000,-0.00021000000000000,0.38100000000000000,0.00081900000000000,-0.38500000000000000,0.00020100000000000,0.00077000000000000,0.68300000000000000,0.90400000000000000
291000.00000000000000000,-0.00014400000000000,-0.00011800000000000,-0.00009290000000000,-0.00000003750000000,0.00000002000000000,0.00008850000000000,0.00016000000000000,-0.00002620000000000,-0.00021100000000000,0.38100000000000000,0.00081900000000000,-0.38500000000000000,0.00020200000000000,0.00077100000000000,0.68300000000000000,0.90400000000000000
291000.00000000000000000,-0.00014400000000000,-0.00011800000000000,-0.00009290000000000,-0.00000003820000000,0.00000002530000000,0.00008860000000000,0.00016000000000000,-0.00002620000000000,-0.00021100000000000,0.38100000000000000,0.00081900000000000,-0.38500000000000000,0.00020500000000000,0.00077200000000000,0.68300000000000000,0.90400000000000000
291000.00000000000000000,-0.00014400000000000,-0.00011800000000000,-0.00009290000000000,-0.00000003870000000,0.00000003070000000,0.00008860000000000,0.00016000000000000,-0.00002630000000000,-0.00021100000000000,0.38200000000000000,0.00082000000000000,-0.38500000000000000,0.00020800000000000,0.00077300000000000,0.68300000000000000,0.90400000000000000
291000.00000000000000000,-0.00014400000000000,-0.00011800000000000,-0.00009290000000000,-0.00000003890000000,0.00000003240000000,0.00008860000000000,0.00016000000000000,-0.00002630000000000,-0.00021100000000000,0.38200000000000000,0.00082000000000000,-0.38600000000000000,0.00020800000000000,0.00077300000000000,0.68300000000000000,0.90500000000000000
291000.00000000000000000,-0.00014400000000000,-0.00011800000000000,-0.00009290000000000,-0.00000003860000000,0.00000003100000000,0.00008860000000000,0.00016000000000000,-0.00002620000000000,-0.00021100000000000,0.38200000000000000,0.00082000000000000,-0.38600000000000000,0.00020700000000000,0.00077300000000000,0.68300000000000000,0.90500000000000000
291000.00000000000000000,-0.00014400000000000,-0.00011800000000000,-0.00009290000000000,-0.00000003830000000,0.00000003060000000,0.00008860000000000,0.00016000000000000,-0.00002630000000000,-0.00021100000000000,0.38300000000000000,0.00082000000000000,-0.38600000000000000,0.00020600000000000,0.00077200000000000,0.68300000000000000,0.90500000000000000
291000.00000000000000000,-0.00014400000000000,-0.00011800000000000,-0.00009280000000000,-0.00000003820000000,0.00000003250000000,0.00008860000000000,0.00016000000000000,-0.00002620000000000,-0.00021100000000000,0.38300000000000000,0.00082000000000000,-0.38700000000000000,0.00020700000000000,0.00077200000000000,0.68300000000000000,0.90600000000000000
291000.00000000000000000,-0.00014400000000000,-0.00011800000000000,-0.00009290000000000,-0.00000003800000000,0.00000003250000000,0.00008860000000000,0.00016000000000000,-0.00002630000000000,-0.00021100000000000,0.38300000000000000,0.00082000000000000,-0.38700000000000000,0.00020800000000000,0.00077000000000000,0.68400000000000000,0.90600000000000000
292000.00000000000000000,-0.00014400000000000,-0.00011800000000000,-0.00009290000000000,-0.00000003740000000,0.00000002860000000,0.00008860000000000,0.00016000000000000,-0.00002620000000000,-0.00021100000000000,0.38300000000000000,0.00082000000000000,-0.38700000000000000,0.00020600000000000,0.00076900000000000,0.68400000000000000,0.90600000000000000
292000.00000000000000000,-0.00014400000000000,-0.00011800000000000,-0.00009290000000000,-0.00000003690000000,0.00000002250000000,0.00008870000000000,0.00016000000000000,-0.00002630000000000,-0.00021100000000000,0.38400000000000000,0.00082100000000000,-0.38700000000000000,0.00020200000000000,0.00076800000000000,0.68400000000000000,0.90600000000000000
292000.00000000000000000,-0.00014400000000000,-0.00011800000000000,-0.00009300000000000,-0.00000003690000000,0.00000002050000000,0.00008870000000000,0.00016000000000000,-0.00002630000000000,-0.00021100000000000,0.38400000000000000,0.00082100000000000,-0.38800000000000000,0.00020200000000000,0.00076800000000000,0.68400000000000000,0.90700000000000000
292000.00000000000000000,-0.00014400000000000,-0.00011800000000000,-0.00009300000000000,-0.00000003720000000,0.00000002270000000,0.00008870000000000,0.00016000000000000,-0.00002630000000000,-0.00021100000000000,0.38400000000000000,0.00082100000000000,-0.38800000000000000,0.00020400000000000,0.00076800000000000,0.68400000000000000,0.90700000000000000
292000.00000000000000000,-0.00014400000000000,-0.00011900000000000,-0.00009310000000000,-0.00000003780000000,0.00000002480000000,0.00008870000000000,0.00016000000000000,-0.00002640000000000,-0.00021100000000000,0.38500000000000000,0.00082200000000000,-0.38800000000000000,0.00020500000000000,0.00076900000000000,0.68400000000000000,0.90700000000000000
292000.00000000000000000,-0.00014400000000000,-0.00011900000000000,-0.00009310000000000,-0.00000003790000000,0.00000002370000000,0.00008870000000000,0.00016000000000000,-0.00002640000000000,-0.00021100000000000,0.38500000000000000,0.00082200000000000,-0.38900000000000000,0.00020400000000000,0.00077000000000000,0.68400000000000000,0.90800000000000000
292000.00000000000000000,-0.00014500000000000,-0.00011900000000000,-0.00009310000000000,-0.00000003800000000,0.00000002290000000,0.00008870000000000,0.00016000000000000,-0.00002640000000000,-0.00021100000000000,0.38500000000000000,0.00082200000000000,-0.38900000000000000,0.00020400000000000,0.00077100000000000,0.68400000000000000,0.90800000000000000
292000.00000000000000000,-0.00014500000000000,-0.00011900000000000,-0.00009310000000000,-0.00000003840000000,0.00000002550000000,0.00008880000000000,0.00016000000000000,-0.00002650000000000,-0.00021100000000000,0.38600000000000000,0.00082200000000000,-0.38900000000000000,0.00020600000000000,0.00077200000000000,0.68400000000000000,0.90800000000000000
292000.00000000000000000,-0.00014500000000000,-0.00011900000000000,-0.00009310000000000,-0.00000003880000000,0.00000003100000000,0.00008880000000000,0.00016000000000000,-0.00002640000000000,-0.00021100000000000,0.38600000000000000,0.00082200000000000,-0.39000000000000000,0.00020900000000000,0.00077300000000000,0.68500000000000000,0.90800000000000000
292000.00000000000000000,-0.00014500000000000,-0.00011900000000000,-0.00009320000000000,-0.00000003850000000,0.00000003240000000,0.00008880000000000,0.00016000000000000,-0.00002650000000000,-0.00021100000000000,0.38600000000000000,0.00082300000000000,-0.39000000000000000,0.00021000000000000,0.00077400000000000,0.68500000000000000,0.90900000000000000
293000.00000000000000000,-0.00014500000000000,-0.00011900000000000,-0.00009310000000000,-0.00000003800000000,0.00000002910000000,0.00008880000000000,0.00016000000000000,-0.00002640000000000,-0.00021100000000000,0.38600000000000000,0.00082300000000000,-0.39000000000000000,0.00020900000000000,0.00077400000000000,0.68500000000000000,0.90900000000000000
293000.00000000000000000,-0.00014500000000000,-0.00011900000000000,-0.00009310000000000,-0.00000003740000000,0.00000002510000000,0.00008880000000000,0.00016000000000000,-0.00002640000000000,-0.00021100000000000,0.38700000000000000,0.00082300000000000,-0.39100000000000000,0.00020700000000000,0.00077300000000000,0.68500000000000000,0.90900000000000000
293000.00000000000000000,-0.00014500000000000,-0.00011900000000000,-0.00009320000000000,-0.00000003710000000,0.00000002520000000,0.00008880000000000,0.00016000000000000,-0.00002650000000000,-0.00021100000000000,0.38700000000000000,0.00082300000000000,-0.39100000000000000,0.00020800000000000,0.00077200000000000,0.68500000000000000,0.91000000000000000
293000.00000000000000000,-0.00014500000000000,-0.00011900000000000,-0.00009310000000000,-0.00000003740000000,0.00000002780000000,0.00008880000000000,0.00016000000000000,-0.00002640000000000,-0.00021100000000000,0.38700000000000000,0.00082400000000000,-0.39100000000000000,0.00021000000000000,0.00077100000000000,0.68500000000000000,0.91000000000000000
293000.00000000000000000,-0.00014500000000000,-0.00011900000000000,-0.00009320000000000,-0.00000003720000000,0.00000002630000000,0.00008890000000000,0.00016000000000000,-0.00002650000000000,-0.00021200000000000,0.38800000000000000,0.00082400000000000,-0.39200000000000000,0.00020900000000000,0.00077000000000000,0.68500000000000000,0.91000000000000000
293000.00000000000000000,-0.00014500000000000,-0.00011900000000000,-0.00009320000000000,-0.00000003730000000,0.00000002320000000,0.00008890000000000,0.00016000000000000,-0.00002650000000000,-0.00021200000000000,0.38800000000000000,0.00082400000000000,-0.39200000000000000,0.00020600000000000,0.00077000000000000,0.68500000000000000,0.91100000000000000
293000.00000000000000000,-0.00014500000000000,-0.00011900000000000,-0.00009330000000000,-0.00000003780000000,0.00000002250000000,0.00008890000000000,0.00016000000000000,-0.00002660000000000,-0.00021200000000000,0.38900000000000000,0.00082500000000000,-0.39200000000000000,0.00020500000000000,0.00076900000000000,0.68600000000000000,0.91100000000000000
293000.00000000000000000,-0.00014500000000000,-0.00011900000000000,-0.00009340000000000,-0.00000003840000000,0.00000002730000000,0.00008890000000000,0.00016000000000000,-0.00002660000000000,-0.00021200000000000,0.38900000000000000,0.00082500000000000,-0.39300000000000000,0.00020700000000000,0.00077000000000000,0.68600000000000000,0.91100000000000000
293000.00000000000000000,-0.00014500000000000,-0.00011900000000000,-0.00009330000000000,-0.00000003940000000,0.00000003350000000,0.00008890000000000,0.00016000000000000,-0.00002660000000000,-0.00021200000000000,0.38900000000000000,0.00082500000000000,-0.39300000000000000,0.00020900000000000,0.00077100000000000,0.68600000000000000,0.91200000000000000
293000.00000000000000000,-0.00014500000000000,-0.00011900000000000,-0.00009340000000000,-0.00000003960000000,0.00000003450000000,0.00008900000000000,0.00016000000000000,-0.00002670000000000,-0.00021200000000000,0.39000000000000000,0.00082500000000000,-0.39300000000000000,0.00020900000000000,0.00077200000000000,0.68600000000000000,0.91200000000000000
294000.00000000000000000,-0.00014500000000000,-0.00011900000000000,-0.00009330000000000,-0.00000003940000000,0.00000003230000000,0.00008900000000000,0.00016100000000000,-0.00002660000000000,-0.00021200000000000,0.39000000000000000,0.00082500000000000,-0.39400000000000000,0.00020700000000000,0.00077200000000000,0.68600000000000000,0.91200000000000000
294000.00000000000000000,-0.00014500000000000,-0.00011900000000000,-0.00009330000000000,-0.00000003920000000,0.00000003140000000,0.00008900000000000,0.00016100000000000,-0.00002660000000000,-0.00021200000000000,0.39000000000000000,0.00082600000000000,-0.39400000000000000,0.00020700000000000,0.00077300000000000,0.68600000000000000,0.91300000000000000
294000.00000000000000000,-0.00014500000000000,-0.00011900000000000,-0.00009340000000000,-0.00000003930000000,0.00000003380000000,0.00008900000000000,0.00016100000000000,-0.00002660000000000,-0.00021200000000000,0.39100000000000000,0.00082600000000000,-0.39500000000000000,0.00021000000000000,0.00077400000000000,0.68600000000000000,0.91300000000000000
294000.00000000000000000,-0.00014500000000000,-0.00011900000000000,-0.00009330000000000,-0.00000003870000000,0.00000003390000000,0.00008900000000000,0.00016100000000000,-0.00002650000000000,-0.00021200000000000,0.39100000000000000,0.00082600000000000,-0.39500000000000000,0.00021100000000000,0.00077400000000000,0.68600000000000000,0.91300000000000000
294000.00000000000000000,-0.00014500000000000,-0.00011900000000000,-0.00009340000000000,-0.00000003840000000,0.00000002990000000,0.00008900000000000,0.00016100000000000,-0.00002670000000000,-0.00021200000000000,0.39200000000000000,0.00082700000000000,-0.39500000000000000,0.00021000000000000,0.00077400000000000,0.68600000000000000,0.91400000000000000
294000.00000000000000000,-0.00014500000000000,-0.00011900000000000,-0.00009340000000000,-0.00000003780000000,0.00000002400000000,0.00008910000000000,0.00016100000000000,-0.00002660000000000,-0.00021200000000000,0.39200000000000000,0.00082700000000000,-0.39600000000000000,0.00020700000000000,0.00077400000000000,0.68700000000000000,0.91400000000000000
294000.00000000000000000,-0.00014600000000000,-0.00011900000000000,-0.00009340000000000,-0.00000003780000000,0.00000002370000000,0.00008910000000000,0.00016100000000000,-0.00002670000000000,-0.00021200000000000,0.39200000000000000,0.00082800000000000,-0.39600000000000000,0.00020800000000000,0.00077400000000000,0.68700000000000000,0.91400000000000000
294000.00000000000000000,-0.00014600000000000,-0.00011900000000000,-0.00009360000000000,-0.00000003870000000,0.00000002890000000,0.00008910000000000,0.00016100000000000,-0.00002680000000000,-0.00021200000000000,0.39300000000000000,0.00082800000000000,-0.39700000000000000,0.00021100000000000,0.00077400000000000,0.68700000000000000,0.91500000000000000
294000.00000000000000000,-0.00014600000000000,-0.00011900000000000,-0.00009350000000000,-0.00000003920000000,0.00000003260000000,0.00008910000000000,0.00016100000000000,-0.00002670000000000,-0.00021200000000000,0.39300000000000000,0.00082900000000000,-0.39700000000000000,0.00021200000000000,0.00077400000000000,0.68700000000000000,0.91500000000000000
294000.00000000000000000,-0.00014600000000000,-0.00012000000000000,-0.00009360000000000,-0.00000003990000000,0.00000003440000000,0.00008910000000000,0.00016100000000000,-0.00002690000000000,-0.00021300000000000,0.39400000000000000,0.00082900000000000,-0.39700000000000000,0.00021200000000000,0.00077400000000000,0.68700000000000000,0.91500000000000000
295000.00000000000000000,-0.00014600000000000,-0.00012000000000000,-0.00009360000000000,-0.00000004030000000,0.00000003530000000,0.00008920000000000,0.00016100000000000,-0.00002680000000000,-0.00021300000000000,0.39400000000000000,0.00082900000000000,-0.39800000000000000,0.00021100000000000,0.00077400000000000,0.68700000000000000,0.91600000000000000
295000.00000000000000000,-0.00014600000000000,-0.00012000000000000,-0.00009360000000000,-0.00000004100000000,0.00000004120000000,0.00008920000000000,0.00016100000000000,-0.00002680000000000,-0.00021300000000000,0.39400000000000000,0.00082900000000000,-0.39800000000000000,0.00021200000000000,0.00077500000000000,0.68700000000000000,0.91600000000000000
295000.00000000000000000,-0.00014600000000000,-0.00012000000000000,-0.00009370000000000,-0.00000004150000000,0.00000004760000000,0.00008920000000000,0.00016100000000000,-0.00002690000000000,-0.00021300000000000,0.39500000000000000,0.00082900000000000,-0.39900000000000000,0.00021500000000000,0.00077500000000000,0.68700000000000000,0.91600000000000000
295000.00000000000000000,-0.00014600000000000,-0.00012000000000000,-0.00009360000000000,-0.00000004170000000,0.00000004880000000,0.00008920000000000,0.00016100000000000,-0.00002680000000000,-0.00021300000000000,0.39500000000000000,0.00082900000000000,-0.39900000000000000,0.00021500000000000,0.00077500000000000,0.68800000000000000,0.91700000000000000
295000.00000000000000000,-0.00014600000000000,-0.00012000000000000,-0.00009370000000000,-0.00000004090000000,0.00000004370000000,0.00008920000000000,0.00016100000000000,-0.00002680000000000,-0.00021300000000000,0.39500000000000000,0.00083000000000000,-0.39900000000000000,0.00021200000000000,0.00077400000000000,0.68800000000000000,0.91700000000000000
295000.00000000000000000,-0.00014600000000000,-0.00012000000000000,-0.00009360000000000,-0.00000004030000000,0.00000003860000000,0.00008920000000000,0.00016100000000000,-0.00002680000000000,-0.00021300000000000,0.39600000000000000,0.00083000000000000,-0.40000000000000000,0.00021000000000000,0.00077400000000000,0.68800000000000000,0.91700000000000000
295000.00000000000000000,-0.00014600000000000,-0.00012000000000000,-0.00009360000000000,-0.00000004000000000,0.00000003690000000,0.00008930000000000,0.00016100000000000,-0.00002680000000000,-0.00021300000000000,0.39600000000000000,0.00083000000000000,-0.40000000000000000,0.00021000000000000,0.00077400000000000,0.68800000000000000,0.91800000000000000
295000.00000000000000000,-0.00014600000000000,-0.00012000000000000,-0.00009370000000000,-0.00000003970000000,0.00000003610000000,0.00008930000000000,0.00016100000000000,-0.00002680000000000,-0.00021300000000000,0.39600000000000000,0.00083100000000000,-0.40000000000000000,0.00021100000000000,0.00077500000000000,0.68800000000000000,0.91800000000000000
295000.00000000000000000,-0.00014600000000000,-0.00012000000000000,-0.00009370000000000,-0.00000003940000000,0.00000003190000000,0.00008930000000000,0.00016100000000000,-0.00002680000000000,-0.00021300000000000,0.39700000000000000,0.00083100000000000,-0.40100000000000000,0.00021000000000000,0.00077500000000000,0.68800000000000000,0.91800000000000000
295000.00000000000000000,-0.00014600000000000,-0.00012000000000000,-0.00009380000000000,-0.00000003900000000,0.00000002610000000,0.00008930000000000,0.00016100000000000,-0.00002690000000000,-0.00021300000000000,0.39700000000000000,0.00083100000000000,-0.40100000000000000,0.00020800000000000,0.00077500000000000,0.68800000000000000,0.91900000000000000
296000.00000000000000000,-0.00014600000000000,-0.00012000000000000,-0.00009380000000000,-0.00000003910000000,0.00000002550000000,0.00008930000000000,0.00016100000000000,-0.00002690000000000,-0.00021300000000000,0.39700000000000000,0.00083100000000000,-0.40100000000000000,0.00020800000000000,0.00077600000000000,0.68800000000000000,0.91900000000000000
296000.00000000000000000,-0.00014600000000000,-0.00012000000000000,-0.00009380000000000,-0.00000003990000000,0.00000003090000000,0.00008930000000000,0.00016100000000000,-0.00002690000000000,-0.00021300000000000,0.39800000000000000,0.00083200000000000,-0.40200000000000000,0.00021100000000000,0.00077700000000000,0.68800000000000000,0.91900000000000000
296000.00000000000000000,-0.00014700000000000,-0.00012000000000000,-0.00009390000000000,-0.00000004040000000,0.00000003690000000,0.00008940000000000,0.00016100000000000,-0.00002710000000000,-0.00021300000000000,0.39800000000000000,0.00083200000000000,-0.40200000000000000,0.00021500000000000,0.00077800000000000,0.68900000000000000,0.91900000000000000
296000.00000000000000000,-0.00014600000000000,-0.00012000000000000,-0.00009390000000000,-0.00000004100000000,0.00000003940000000,0.00008940000000000,0.00016100000000000,-0.00002700000000000,-0.00021300000000000,0.39800000000000000,0.00083200000000000,-0.40200000000000000,0.00021500000000000,0.00077800000000000,0.68900000000000000,0.92000000000000000
296000.00000000000000000,-0.00014700000000000,-0.00012000000000000,-0.00009390000000000,-0.00000004120000000,0.00000003980000000,0.00008940000000000,0.00016100000000000,-0.00002700000000000,-0.00021300000000000,0.39900000000000000,0.00083200000000000,-0.40200000000000000,0.00021500000000000,0.00077900000000000,0.68900000000000000,0.92000000000000000
296000.00000000000000000,-0.00014800000000000,-0.00012100000000000,-0.00009510000000000,-0.00000003860000000,0.00000004320000000,0.00008940000000000,0.00016100000000000,-0.00002820000000000,-0.00021500000000000,0.39900000000000000,0.00084100000000000,-0.40300000000000000,0.00021700000000000,0.00078200000000000,0.68900000000000000,0.92100000000000000
296000.00000000000000000,-0.00014700000000000,-0.00012000000000000,-0.00009410000000000,-0.00000003890000000,0.00000004200000000,0.00008940000000000,0.00016100000000000,-0.00002730000000000,-0.00021400000000000,0.40000000000000000,0.00083400000000000,-0.40300000000000000,0.00021700000000000,0.00077800000000000,0.68900000000000000,0.92100000000000000
296000.00000000000000000,-0.00014800000000000,-0.00012100000000000,-0.00009480000000000,-0.00000004130000000,0.00000004110000000,0.00008940000000000,0.00016200000000000,-0.00002790000000000,-0.00021400000000000,0.40000000000000000,0.00084000000000000,-0.40400000000000000,0.00021600000000000,0.00077600000000000,0.68900000000000000,0.92100000000000000
296000.00000000000000000,-0.00014800000000000,-0.00012100000000000,-0.00009480000000000,-0.00000004040000000,0.00000004120000000,0.00008940000000000,0.00016100000000000,-0.00002800000000000,-0.00021400000000000,0.40000000000000000,0.00084000000000000,-0.40400000000000000,0.00021500000000000,0.00077500000000000,0.68900000000000000,0.92100000000000000
296000.00000000000000000,-0.00014700000000000,-0.00012100000000000,-0.00009470000000000,-0.00000004020000000,0.00000004100000000,0.00008940000000000,0.00016200000000000,-0.00002780000000000,-0.00021400000000000,0.40000000000000000,0.00083800000000000,-0.40400000000000000,0.00021400000000000,0.00077700000000000,0.68900000000000000,0.92100000000000000
297000.00000000000000000,-0.00014800000000000,-0.00012100000000000,-0.00009480000000000,-0.00000003940000000,0.00000003300000000,0.00008950000000000,0.00016200000000000,-0.00002790000000000,-0.00021400000000000,0.40000000000000000,0.00083800000000000,-0.40400000000000000,0.00021200000000000,0.00077400000000000,0.68900000000000000,0.92200000000000000
297000.00000000000000000,-0.00014700000000000,-0.00012100000000000,-0.00009440000000000,-0.00000004120000000,0.00000004070000000,0.00008950000000000,0.00016200000000000,-0.00002760000000000,-0.00021400000000000,0.40000000000000000,0.00083800000000000,-0.40400000000000000,0.00021400000000000,0.00077600000000000,0.68900000000000000,0.92200000000000000
297000.00000000000000000,-0.00014700000000000,-0.00012100000000000,-0.00009460000000000,-0.00000003990000000,0.00000003940000000,0.00008950000000000,0.00016200000000000,-0.00002770000000000,-0.00021400000000000,0.40000000000000000,0.00083800000000000,-0.40400000000000000,0.00021500000000000,0.00077600000000000,0.69000000000000000,0.92200000000000000
297000.00000000000000000,-0.00014800000000000,-0.00012100000000000,-0.00009480000000000,-0.00000003900000000,0.00000003190000000,0.00008950000000000,0.00016200000000000,-0.00002790000000000,-0.00021500000000000,0.40100000000000000,0.00083800000000000,-0.40400000000000000,0.00021300000000000,0.00077500000000000,0.69000000000000000,0.92200000000000000
297000.00000000000000000,-0.00014700000000000,-0.00012100000000000,-0.00009450000000000,-0.00000004050000000,0.00000003500000000,0.00008950000000000,0.00016200000000000,-0.00002770000000000,-0.00021400000000000,0.40100000000000000,0.00083800000000000,-0.40500000000000000,0.00021200000000000,0.00077700000000000,0.69000000000000000,0.92200000000000000
297000.00000000000000000,-0.00014800000000000,-0.00012100000000000,-0.00009450000000000,-0.00000004000000000,0.00000003600000000,0.00008950000000000,0.00016200000000000,-0.00002770000000000,-0.00021400000000000,0.40100000000000000,0.00083800000000000,-0.40500000000000000,0.00021300000000000,0.00077800000000000,0.69000000000000000,0.92200000000000000
297000.00000000000000000,-0.00014800000000000,-0.00012100000000000,-0.00009470000000000,-0.00000004000000000,0.00000003860000000,0.00008950000000000,0.00016200000000000,-0.00002790000000000,-0.00021500000000000,0.40100000000000000,0.00083800000000000,-0.40500000000000000,0.00021600000000000,0.00077700000000000,0.69000000000000000,0.92300000000000000
297000.00000000000000000,-0.00014800000000000,-0.00012100000000000,-0.00009460000000000,-0.00000004060000000,0.00000004070000000,0.00008950000000000,0.00016200000000000,-0.00002780000000000,-0.00021400000000000,0.40100000000000000,0.00083900000000000,-0.40500000000000000,0.00021800000000000,0.00077800000000000,0.69000000000000000,0.92300000000000000
297000.00000000000000000,-0.00014800000000000,-0.00012100000000000,-0.00009460000000000,-0.00000003960000000,0.00000003310000000,0.00008950000000000,0.00016200000000000,-0.00002780000000000,-0.00021400000000000,0.40100000000000000,0.00083900000000000,-0.40500000000000000,0.00021500000000000,0.00077700000000000,0.69000000000000000,0.92300000000000000
297000.00000000000000000,-0.00014800000000000,-0.00012100000000000,-0.00009470000000000,-0.00000003970000000,0.00000003500000000,0.00008950000000000,0.00016200000000000,-0.00002790000000000,-0.00021500000000000,0.40100000000000000,0.00083900000000000,-0.40500000000000000,0.00021500000000000,0.00077800000000000,0.69000000000000000,0.92300000000000000
298000.00000000000000000,-0.00014800000000000,-0.00012100000000000,-0.00009460000000000,-0.00000004190000000,0.00000004530000000,0.00008950000000000,0.00016200000000000,-0.00002770000000000,-0.00021400000000000,0.40100000000000000,0.00083900000000000,-0.40500000000000000,0.00021700000000000,0.00078000000000000,0.69000000000000000,0.92300000000000000
298000.00000000000000000,-0.00014800000000000,-0.00012100000000000,-0.00009460000000000,-0.00000004080000000,0.00000003930000000,0.00008950000000000,0.00016200000000000,-0.00002770000000000,-0.00021400000000000,0.40100000000000000,0.00084000000000000,-0.40500000000000000,0.00021600000000000,0.00077800000000000,0.69000000000000000,0.92300000000000000
298000.00000000000000000,-0.00014800000000000,-0.00012100000000000,-0.00009480000000000,-0.00000003980000000,0.00000003790000000,0.00008950000000000,0.00016200000000000,-0.00002790000000000,-0.00021500000000000,0.40200000000000000,0.00083900000000000,-0.40500000000000000,0.00021700000000000,0.00077600000000000,0.69000000000000000,0.92300000000000000
298000.00000000000000000,-0.00014800000000000,-0.00012100000000000,-0.00009460000000000,-0.00000004190000000,0.00000004380000000,0.00008950000000000,0.00016200000000000,-0.00002780000000000,-0.00021500000000000,0.40200000000000000,0.00083900000000000,-0.40500000000000000,0.00021600000000000,0.00077800000000000,0.69000000000000000,0.92300000000000000
298000.00000000000000000,-0.00014800000000000,-0.00012100000000000,-0.00009440000000000,-0.00000004260000000,0.00000004390000000,0.00008950000000000,0.00016200000000000,-0.00002760000000000,-0.00021400000000000,0.40200000000000000,0.00083900000000000,-0.40500000000000000,0.00021400000000000,0.00077900000000000,0.69000000000000000,0.92300000000000000
298000.00000000000000000,-0.00014800000000000,-0.00012100000000000,-0.00009450000000000,-0.00000004200000000,0.00000004600000000,0.00008950000000000,0.00016200000000000,-0.00002770000000000,-0.00021400000000000,0.40200000000000000,0.00084000000000000,-0.40500000000000000,0.00021500000000000,0.00077800000000000,0.69000000000000000,0.92300000000000000
298000.00000000000000000,-0.00014800000000000,-0.00012100000000000,-0.00009490000000000,-0.00000004220000000,0.00000004790000000,0.00008950000000000,0.00016200000000000,-0.00002810000000000,-0.00021500000000000,0.40200000000000000,0.00083900000000000,-0.40600000000000000,0.00021700000000000,0.00077800000000000,0.69000000000000000,0.92400000000000000
298000.00000000000000000,-0.00014800000000000,-0.00012100000000000,-0.00009450000000000,-0.00000004540000000,0.00000005840000000,0.00008960000000000,0.00016200000000000,-0.00002770000000000,-0.00021500000000000,0.40200000000000000,0.00084000000000000,-0.40600000000000000,0.00021900000000000,0.00077900000000000,0.69000000000000000,0.92400000000000000
298000.00000000000000000,-0.00014800000000000,-0.00012100000000000,-0.00009450000000000,-0.00000004700000000,0.00000006580000000,0.00008960000000000,0.00016200000000000,-0.00002760000000000,-0.00021500000000000,0.40300000000000000,0.00084200000000000,-0.40700000000000000,0.00021800000000000,0.00078200000000000,0.69100000000000000,0.92400000000000000
298000.00000000000000000,-0.00014800000000000,-0.00012100000000000,-0.00009480000000000,-0.00000004720000000,0.00000006880000000,0.00008960000000000,0.00016200000000000,-0.00002790000000000,-0.00021500000000000,0.40400000000000000,0.00084200000000000,-0.40800000000000000,0.00021800000000000,0.00078400000000000,0.69100000000000000,0.92500000000000000
299000.00000000000000000,-0.00014800000000000,-0.00012100000000000,-0.00009490000000000,-0.00000005180000000,0.00000008480000000,0.00008970000000000,0.00016200000000000,-0.00002790000000000,-0.00021500000000000,0.40600000000000000,0.00084300000000000,-0.40900000000000000,0.00022000000000000,0.00078800000000000,0.69100000000000000,0.92600000000000000
299000.00000000000000000,-0.00014800000000000,-0.00012100000000000,-0.00009470000000000,-0.00000005430000000,0.00000009860000000,0.00008980000000000,0.00016200000000000,-0.00002770000000000,-0.00021500000000000,0.40700000000000000,0.00084600000000000,-0.41100000000000000,0.00022300000000000,0.00079300000000000,0.69100000000000000,0.92700000000000000
299000.00000000000000000,-0.00014800000000000,-0.00012200000000000,-0.00009520000000000,-0.00000005580000000,0.00000010600000000,0.00008990000000000,0.00016200000000000,-0.00002810000000000,-0.00021600000000000,0.40900000000000000,0.00084600000000000,-0.41300000000000000,0.00022500000000000,0.00079600000000000,0.69100000000000000,0.92800000000000000
299000.00000000000000000,-0.00014800000000000,-0.00012100000000000,-0.00009490000000000,-0.00000005880000000,0.00000011400000000,0.00008990000000000,0.00016200000000000,-0.00002770000000000,-0.00021500000000000,0.41000000000000000,0.00084800000000000,-0.41400000000000000,0.00022400000000000,0.00080000000000000,0.69100000000000000,0.92900000000000000
299000.00000000000000000,-0.00014900000000000,-0.00012200000000000,-0.00009530000000000,-0.00000005830000000,0.00000011500000000,0.00009000000000000,0.00016300000000000,-0.00002810000000000,-0.00021600000000000,0.41100000000000000,0.00084800000000000,-0.41500000000000000,0.00022300000000000,0.00080100000000000,0.69100000000000000,0.93000000000000000
299000.00000000000000000,-0.00014800000000000,-0.00012200000000000,-0.00009510000000000,-0.00000006050000000,0.00000012100000000,0.00009000000000000,0.00016300000000000,-0.00002790000000000,-0.00021600000000000,0.41200000000000000,0.00084900000000000,-0.41600000000000000,0.00022400000000000,0.00080300000000000,0.69100000000000000,0.93000000000000000
299000.00000000000000000,-0.00014900000000000,-0.00012200000000000,-0.00009530000000000,-0.00000005920000000,0.00000011900000000,0.00009000000000000,0.00016300000000000,-0.00002810000000000,-0.00021600000000000,0.41200000000000000,0.00085000000000000,-0.41600000000000000,0.00022400000000000,0.00080300000000000,0.69100000000000000,0.93100000000000000
299000.00000000000000000,-0.00014900000000000,-0.00012200000000000,-0.00009520000000000,-0.00000006000000000,0.00000012000000000,0.00009000000000000,0.00016300000000000,-0.00002800000000000,-0.00021600000000000,0.41300000000000000,0.00085000000000000,-0.41700000000000000,0.00022500000000000,0.00080300000000000,0.69100000000000000,0.93100000000000000
299000.00000000000000000,-0.00014900000000000,-0.00012200000000000,-0.00009530000000000,-0.00000005970000000,0.00000012000000000,0.00009010000000000,0.00016300000000000,-0.00002800000000000,-0.00021600000000000,0.41300000000000000,0.00085000000000000,-0.41700000000000000,0.00022400000000000,0.00080400000000000,0.69200000000000000,0.93100000000000000
299000.00000000000000000,-0.00014900000000000,-0.00012200000000000,-0.00009530000000000,-0.00000005970000000,0.00000011800000000,0.00009010000000000,0.00016300000000000,-0.00002810000000000,-0.00021600000000000,0.41300000000000000,0.00085000000000000,-0.41700000000000000,0.00022200000000000,0.00080400000000000,0.69200000000000000,0.93200000000000000
300000.00000000000000000,-0.00014900000000000,-0.00012200000000000,-0.00009530000000000,-0.00000005910000000,0.00000011600000000,0.00009010000000000,0.00016300000000000,-0.00002810000000000,-0.00021600000000000,0.41400000000000000,0.00085100000000000,-0.41700000000000000,0.00022300000000000,0.00080300000000000,0.69200000000000000,0.93200000000000000
300000.00000000000000000,-0.00014900000000000,-0.00012200000000000,-0.00009540000000000,-0.00000005910000000,0.00000011700000000,0.00009010000000000,0.00016300000000000,-0.00002820000000000,-0.00021600000000000,0.41400000000000000,0.00085100000000000,-0.41800000000000000,0.00022400000000000,0.00080300000000000,0.69200000000000000,0.93200000000000000
300000.00000000000000000,-0.00014900000000000,-0.00012200000000000,-0.00009530000000000,-0.00000005930000000,0.00000012000000000,0.00009010000000000,0.00016300000000000,-0.00002810000000000,-0.00021600000000000,0.41400000000000000,0.00085100000000000,-0.41800000000000000,0.00022600000000000,0.00080300000000000,0.69200000000000000,0.93200000000000000
300000.00000000000000000,-0.00014900000000000,-0.00012200000000000,-0.00009510000000000,-0.00000006260000000,0.00000011900000000,0.00009000000000000,0.00016300000000000,-0.00002800000000000,-0.00021600000000000,0.41500000000000000,0.00084700000000000,-0.41800000000000000,0.00022300000000000,0.00080300000000000,0.69200000000000000,0.93300000000000000
300000.00000000000000000,-0.00014900000000000,-0.00012200000000000,-0.00009570000000000,-0.00000005040000000,0.00000009700000000,0.00008960000000000,0.00016200000000000,-0.00002890000000000,-0.00021600000000000,0.41500000000000000,0.00085300000000000,-0.41900000000000000,0.00022700000000000,0.00080000000000000,0.69200000000000000,0.93300000000000000
300000.00000000000000000,-0.00014900000000000,-0.00012200000000000,-0.00009570000000000,-0.00000005040000000,0.00000009700000000,0.00008960000000000,0.00016200000000000,-0.00002890000000000,-0.00021600000000000,0.41500000000000000,0.00085300000000000,-0.41900000000000000,0.00022700000000000,0.00080000000000000,0.69200000000000000,0.93300000000000000
,,,,,,,,,,,,,,,,
