Time,X-stress,Y-stress-5765,Z-stress-5765,XY-stress-5765,YZ-stress-5765,ZX-stress-5765,Effective Stress (v-m)-5765,Maximum Principal Stress-5765,Minimum Principal Stress-5765, X-strain-5765, Y-strain-5765, Z-strain-5765, XY-strain-5765, YZ-strain-5765, ZX-strain-5765, Effective Strain-5765,
0.000000000000000,0.000000000000000,0.000000000000000,0.000000000000000,0.000000000000000,0.000000000000000,0.000000000000000,0.000000000000000,0.000000000000000,0.000000000000000,0.000000000000000,0.000000000000000,0.000000000000000,0.000000000000000,0.000000000000000,0.000000000000000,0.000000000000000,
100.000000000000000,0.000000000000000,0.000000000000000,0.000000000000000,0.000000000000000,0.000000000000000,0.000000000000000,0.000000000000000,0.000000000000000,0.000000000000000,0.000000000000000,0.000000000000000,0.000000000000000,0.000000000000000,0.000000000000000,0.000000000000000,0.000000000000000,
200.000000000000000,0.000000003870000,0.000000003880000,0.000000004320000,-0.000000000098700,-0.000000000097800,0.000000081500000,0.000000141000000,0.000000085600000,-0.000000077400000,-0.000000062000000,-0.000000053400000,0.000000214000000,-0.000000060000000,-0.000000059500000,0.000049600000000,0.000057200000000,
300.000000000000000,-0.000000007550000,-0.000000007590000,-0.000000008350000,0.000000000009300,0.000000000710000,0.000000201000000,0.000000348000000,0.000000193000000,-0.000000209000000,0.000000105000000,0.000000083200000,-0.000000380000000,0.000000005660000,0.000000432000000,0.000122000000000,0.000141000000000,
400.000000000000000,0.000000014900000,0.000000015300000,0.000000016300000,-0.000000000080000,0.000000002320000,0.000000321000000,0.000000556000000,0.000000337000000,-0.000000305000000,-0.000000235000000,-0.000000008740000,0.000000624000000,-0.000000048700000,0.000001410000000,0.000195000000000,0.000225000000000,
500.000000000000000,-0.000000492000000,-0.000000491000000,-0.000000528000000,-0.000000000343000,0.000000001640000,0.000000271000000,0.000000471000000,-0.000000238000000,-0.000000782000000,0.000002890000000,0.000003490000000,-0.000018700000000,-0.000000208000000,0.000000999000000,0.000165000000000,0.000191000000000,
600.000000000000000,-0.000000091000000,-0.000000089800000,-0.000000094600000,-0.000000000129000,0.000000007670000,0.000000287000000,0.000000497000000,0.000000194000000,-0.000000380000000,-0.000000263000000,0.000000470000000,-0.000002450000000,-0.000000078400000,0.000004660000000,0.000175000000000,0.000202000000000,
700.000000000000000,-0.000000497000000,-0.000000495000000,-0.000000529000000,-0.000000000481000,0.000000009180000,0.000000470000000,0.000000815000000,-0.000000043100000,-0.000000983000000,0.000001750000000,0.000003470000000,-0.000017600000000,-0.000000292000000,0.000005590000000,0.000286000000000,0.000330000000000,
800.000000000000000,-0.000001100000000,-0.000001100000000,-0.000001180000000,-0.000000000746000,0.000000008810000,0.000000609000000,0.000001060000000,-0.000000531000000,-0.000001750000000,0.000006720000000,0.000007670000000,-0.000042000000000,-0.000000454000000,0.000005360000000,0.000371000000000,0.000429000000000,
900.000000000000000,-0.000000995000000,-0.000000991000000,-0.000001060000000,-0.000000000606000,0.000000008530000,0.000000803000000,0.000001390000000,-0.000000225000000,-0.000001830000000,0.000004620000000,0.000006910000000,-0.000036400000000,-0.000000369000000,0.000005190000000,0.000488000000000,0.000564000000000,
1000.000000000000000,-0.000000715000000,-0.000000712000000,-0.000000762000000,-0.000000000632000,0.000000011900000,0.000000909000000,0.000001580000000,0.000000171000000,-0.000001650000000,0.000003190000000,0.000004800000000,-0.000025900000000,-0.000000384000000,0.000007250000000,0.000553000000000,0.000639000000000,
1100.000000000000000,-0.000000782000000,-0.000000777000000,-0.000000832000000,-0.000000000706000,0.000000012400000,0.000000939000000,0.000001630000000,0.000000133000000,-0.000001750000000,0.000002850000000,0.000005460000000,-0.000027800000000,-0.000000429000000,0.000007570000000,0.000571000000000,0.000660000000000,
1200.000000000000000,-0.000001020000000,-0.000001020000000,-0.000001090000000,-0.000000000778000,0.000000013100000,0.000000965000000,0.000001670000000,-0.000000088400000,-0.000002020000000,0.000005330000000,0.000007080000000,-0.000037900000000,-0.000000473000000,0.000007960000000,0.000587000000000,0.000678000000000,
1300.000000000000000,-0.000001090000000,-0.000001090000000,-0.000001170000000,-0.000000000714000,0.000000015200000,0.000001080000000,0.000001870000000,-0.000000051300000,-0.000002210000000,0.000005400000000,0.000007570000000,-0.000040300000000,-0.000000434000000,0.000009250000000,0.000655000000000,0.000757000000000,
1400.000000000000000,-0.000001220000000,-0.000001210000000,-0.000001300000000,-0.000000000747000,0.000000014000000,0.000001220000000,0.000002120000000,-0.000000038300000,-0.000002480000000,0.000006280000000,0.000008510000000,-0.000045300000000,-0.000000454000000,0.000008520000000,0.000742000000000,0.000858000000000,
1500.000000000000000,-0.000001320000000,-0.000001320000000,-0.000001410000000,-0.000000001010000,0.000000014800000,0.000001370000000,0.000002370000000,0.000000002430000,-0.000002740000000,0.000005440000000,0.000009310000000,-0.000047800000000,-0.000000615000000,0.000009020000000,0.000833000000000,0.000962000000000,
1600.000000000000000,-0.000001410000000,-0.000001410000000,-0.000001510000000,-0.000000001110000,0.000000018200000,0.000001620000000,0.000002800000000,0.000000160000000,-0.000003080000000,0.000006600000000,0.000009870000000,-0.000051800000000,-0.000000677000000,0.000011100000000,0.000984000000000,0.001140000000000,
1700.000000000000000,-0.000001830000000,-0.000001820000000,-0.000001950000000,-0.000000001540000,0.000000025500000,0.000001680000000,0.000002910000000,-0.000000204000000,-0.000003570000000,0.000007590000000,0.000012600000000,-0.000065900000000,-0.000000935000000,0.000015500000000,0.001020000000000,0.001180000000000,
1800.000000000000000,-0.000002310000000,-0.000002300000000,-0.000002470000000,-0.000000001570000,0.000000027100000,0.000001760000000,0.000003050000000,-0.000000631000000,-0.000004150000000,0.000010700000000,0.000016100000000,-0.000084700000000,-0.000000952000000,0.000016500000000,0.001070000000000,0.001240000000000,
1900.000000000000000,-0.000002330000000,-0.000002320000000,-0.000002490000000,-0.000000001660000,0.000000024800000,0.000001840000000,0.000003200000000,-0.000000569000000,-0.000004260000000,0.000011100000000,0.000016400000000,-0.000085800000000,-0.000001010000000,0.000015100000000,0.001120000000000,0.001300000000000,
2000.000000000000000,-0.000001960000000,-0.000001950000000,-0.000002090000000,-0.000000001550000,0.000000023100000,0.000001980000000,0.000003420000000,-0.000000043200000,-0.000004000000000,0.000008360000000,0.000013700000000,-0.000070900000000,-0.000000941000000,0.000014000000000,0.001200000000000,0.001390000000000,
2100.000000000000000,-0.000001560000000,-0.000001550000000,-0.000001660000000,-0.000000001250000,0.000000024900000,0.000002030000000,0.000003510000000,0.000000414000000,-0.000003640000000,0.000006320000000,0.000010800000000,-0.000056100000000,-0.000000759000000,0.000015100000000,0.001230000000000,0.001420000000000,
2200.000000000000000,-0.000001750000000,-0.000001740000000,-0.000001870000000,-0.000000001320000,0.000000027200000,0.000002110000000,0.000003660000000,0.000000306000000,-0.000003920000000,0.000006900000000,0.000012300000000,-0.000063000000000,-0.000000801000000,0.000016500000000,0.001290000000000,0.001490000000000,
2300.000000000000000,-0.000002120000000,-0.000002110000000,-0.000002260000000,-0.000000001670000,0.000000031500000,0.000002240000000,0.000003880000000,0.000000050300000,-0.000004420000000,0.000009200000000,0.000014800000000,-0.000076900000000,-0.000001020000000,0.000019200000000,0.001360000000000,0.001570000000000,
2400.000000000000000,-0.000002730000000,-0.000002710000000,-0.000002910000000,-0.000000001820000,0.000000035600000,0.000002490000000,0.000004310000000,-0.000000328000000,-0.000005310000000,0.000011600000000,0.000019000000000,-0.000098800000000,-0.000001110000000,0.000021600000000,0.001510000000000,0.001750000000000,
2500.000000000000000,-0.000003100000000,-0.000003090000000,-0.000003310000000,-0.000000002230000,0.000000035400000,0.000002610000000,0.000004520000000,-0.000000594000000,-0.000005820000000,0.000014500000000,0.000021600000000,-0.000114000000000,-0.000001360000000,0.000021600000000,0.001590000000000,0.001830000000000,
2600.000000000000000,-0.000003250000000,-0.000003240000000,-0.000003470000000,-0.000000002380000,0.000000036900000,0.000002810000000,0.000004880000000,-0.000000544000000,-0.000006170000000,0.000013900000000,0.000022800000000,-0.000118000000000,-0.000001450000000,0.000022400000000,0.001710000000000,0.001980000000000,
2700.000000000000000,-0.000002880000000,-0.000002860000000,-0.000003070000000,-0.000000002210000,0.000000036500000,0.000002910000000,0.000005040000000,-0.000000065900000,-0.000005880000000,0.000012700000000,0.000020100000000,-0.000105000000000,-0.000001350000000,0.000022200000000,0.001770000000000,0.002040000000000,
2800.000000000000000,-0.000002810000000,-0.000002800000000,-0.000003000000000,-0.000000001920000,0.000000038000000,0.000002870000000,0.000004980000000,-0.000000032000000,-0.000005780000000,0.000010600000000,0.000019800000000,-0.000101000000000,-0.000001170000000,0.000023100000000,0.001750000000000,0.002020000000000,
2900.000000000000000,-0.000002770000000,-0.000002760000000,-0.000002960000000,-0.000000002110000,0.000000038500000,0.000002850000000,0.000004930000000,-0.000000016000000,-0.000005710000000,0.000012100000000,0.000019400000000,-0.000101000000000,-0.000001290000000,0.000023400000000,0.001730000000000,0.002000000000000,
3000.000000000000000,-0.000002970000000,-0.000002950000000,-0.000003160000000,-0.000000002340000,0.000000039700000,0.000002970000000,0.000005150000000,-0.000000093200000,-0.000006040000000,0.000011800000000,0.000020800000000,-0.000107000000000,-0.000001420000000,0.000024100000000,0.001810000000000,0.002090000000000,
3100.000000000000000,-0.000003210000000,-0.000003200000000,-0.000003430000000,-0.000000002370000,0.000000041200000,0.000003150000000,0.000005460000000,-0.000000167000000,-0.000006470000000,0.000014000000000,0.000022400000000,-0.000117000000000,-0.000001440000000,0.000025000000000,0.001920000000000,0.002210000000000,
3200.000000000000000,-0.000003490000000,-0.000003470000000,-0.000003720000000,-0.000000002580000,0.000000044900000,0.000003360000000,0.000005820000000,-0.000000244000000,-0.000006960000000,0.000013300000000,0.000024500000000,-0.000125000000000,-0.000001570000000,0.000027300000000,0.002040000000000,0.002360000000000,
3300.000000000000000,-0.000003710000000,-0.000003690000000,-0.000003960000000,-0.000000002800000,0.000000046600000,0.000003660000000,0.000006350000000,-0.000000171000000,-0.000007500000000,0.000015800000000,0.000025900000000,-0.000135000000000,-0.000001700000000,0.000028300000000,0.002230000000000,0.002570000000000,
3400.000000000000000,-0.000004040000000,-0.000004020000000,-0.000004310000000,-0.000000003080000,0.000000052000000,0.000003730000000,0.000006460000000,-0.000000445000000,-0.000007910000000,0.000016200000000,0.000028300000000,-0.000145000000000,-0.000001870000000,0.000031600000000,0.002270000000000,0.002620000000000,
3500.000000000000000,-0.000004230000000,-0.000004210000000,-0.000004510000000,-0.000000003230000,0.000000053700000,0.000003770000000,0.000006540000000,-0.000000597000000,-0.000008150000000,0.000018000000000,0.000029500000000,-0.000153000000000,-0.000001960000000,0.000032700000000,0.002290000000000,0.002650000000000,
3600.000000000000000,-0.000004060000000,-0.000004040000000,-0.000004330000000,-0.000000003050000,0.000000053800000,0.000003740000000,0.000006480000000,-0.000000453000000,-0.000007930000000,0.000016200000000,0.000028400000000,-0.000146000000000,-0.000001860000000,0.000032700000000,0.002270000000000,0.002630000000000,
3700.000000000000000,-0.000003790000000,-0.000003770000000,-0.000004040000000,-0.000000002940000,0.000000051700000,0.000003850000000,0.000006680000000,-0.000000058400000,-0.000007770000000,0.000014600000000,0.000026500000000,-0.000136000000000,-0.000001790000000,0.000031400000000,0.002340000000000,0.002710000000000,
3800.000000000000000,-0.000003580000000,-0.000003560000000,-0.000003810000000,-0.000000002780000,0.000000050200000,0.000003880000000,0.000006730000000,0.000000186000000,-0.000007580000000,0.000013400000000,0.000025100000000,-0.000128000000000,-0.000001690000000,0.000030500000000,0.002360000000000,0.002730000000000,
3900.000000000000000,-0.000003730000000,-0.000003710000000,-0.000003970000000,-0.000000003030000,0.000000051300000,0.000004050000000,0.000007030000000,0.000000206000000,-0.000007910000000,0.000014100000000,0.000026200000000,-0.000133000000000,-0.000001840000000,0.000031200000000,0.002470000000000,0.002850000000000,
4000.000000000000000,-0.000004220000000,-0.000004200000000,-0.000004500000000,-0.000000003280000,0.000000056200000,0.000004250000000,0.000007370000000,-0.000000108000000,-0.000008620000000,0.000016900000000,0.000029500000000,-0.000152000000000,-0.000001990000000,0.000034200000000,0.002590000000000,0.002990000000000,
4100.000000000000000,-0.000004910000000,-0.000004880000000,-0.000005230000000,-0.000000003650000,0.000000061100000,0.000004530000000,0.000007850000000,-0.000000540000000,-0.000009600000000,0.000019200000000,0.000034300000000,-0.000176000000000,-0.000002220000000,0.000037200000000,0.002750000000000,0.003180000000000,
4200.000000000000000,-0.000005390000000,-0.000005370000000,-0.000005750000000,-0.000000003950000,0.000000065000000,0.000004600000000,0.000007970000000,-0.000000972000000,-0.000010200000000,0.000022600000000,0.000037600000000,-0.000195000000000,-0.000002400000000,0.000039500000000,0.002800000000000,0.003230000000000,
4300.000000000000000,-0.000005400000000,-0.000005370000000,-0.000005750000000,-0.000000003970000,0.000000065700000,0.000004740000000,0.000008230000000,-0.000000830000000,-0.000010300000000,0.000021100000000,0.000037800000000,-0.000194000000000,-0.000002410000000,0.000039900000000,0.002890000000000,0.003340000000000,
4400.000000000000000,-0.000005060000000,-0.000005040000000,-0.000005400000000,-0.000000003770000,0.000000062300000,0.000004870000000,0.000008450000000,-0.000000354000000,-0.000010100000000,0.000020300000000,0.000035300000000,-0.000182000000000,-0.000002290000000,0.000037900000000,0.002960000000000,0.003430000000000,
4500.000000000000000,-0.000004530000000,-0.000004510000000,-0.000004830000000,-0.000000003420000,0.000000061900000,0.000004840000000,0.000008390000000,0.000000165000000,-0.000009530000000,0.000016000000000,0.000031900000000,-0.000161000000000,-0.000002080000000,0.000037600000000,0.002950000000000,0.003400000000000,
4600.000000000000000,-0.000004460000000,-0.000004440000000,-0.000004750000000,-0.000000003470000,0.000000064200000,0.000004760000000,0.000008260000000,0.000000158000000,-0.000009370000000,0.000016700000000,0.000031100000000,-0.000159000000000,-0.000002110000000,0.000039000000000,0.002900000000000,0.003350000000000,
4700.000000000000000,-0.000004660000000,-0.000004640000000,-0.000004960000000,-0.000000003660000,0.000000066100000,0.000004900000000,0.000008490000000,0.000000086600000,-0.000009710000000,0.000016400000000,0.000032700000000,-0.000166000000000,-0.000002230000000,0.000040200000000,0.002980000000000,0.003440000000000,
4800.000000000000000,-0.000005290000000,-0.000005260000000,-0.000005640000000,-0.000000003950000,0.000000069600000,0.000005130000000,0.000008900000000,-0.000000328000000,-0.000010600000000,0.000021000000000,0.000036900000000,-0.000190000000000,-0.000002410000000,0.000042400000000,0.003120000000000,0.003610000000000,
4900.000000000000000,-0.000005830000000,-0.000005800000000,-0.000006210000000,-0.000000004380000,0.000000072600000,0.000005370000000,0.000009320000000,-0.000000646000000,-0.000011400000000,0.000021200000000,0.000040900000000,-0.000208000000000,-0.000002660000000,0.000044200000000,0.003270000000000,0.003780000000000,
5000.000000000000000,-0.000006190000000,-0.000006160000000,-0.000006590000000,-0.000000004720000,0.000000075000000,0.000005600000000,0.000009710000000,-0.000000786000000,-0.000012000000000,0.000023900000000,0.000043200000000,-0.000222000000000,-0.000002870000000,0.000045600000000,0.003410000000000,0.003940000000000,
5100.000000000000000,-0.000006210000000,-0.000006170000000,-0.000006610000000,-0.000000004740000,0.000000077400000,0.000005740000000,0.000009960000000,-0.000000659000000,-0.000012200000000,0.000022700000000,0.000043500000000,-0.000221000000000,-0.000002880000000,0.000047100000000,0.003490000000000,0.004040000000000,
5200.000000000000000,-0.000006100000000,-0.000006060000000,-0.000006490000000,-0.000000004600000,0.000000077000000,0.000005770000000,0.000010000000000,-0.000000517000000,-0.000012100000000,0.000023500000000,0.000042600000000,-0.000218000000000,-0.000002790000000,0.000046800000000,0.003510000000000,0.004060000000000,
5300.000000000000000,-0.000005810000000,-0.000005780000000,-0.000006180000000,-0.000000004430000,0.000000078200000,0.000005690000000,0.000009860000000,-0.000000301000000,-0.000011700000000,0.000020300000000,0.000040700000000,-0.000206000000000,-0.000002700000000,0.000047500000000,0.003460000000000,0.004000000000000,
5400.000000000000000,-0.000005590000000,-0.000005560000000,-0.000005950000000,-0.000000004390000,0.000000077400000,0.000005710000000,0.000009900000000,-0.000000051000000,-0.000011500000000,0.000020100000000,0.000039000000000,-0.000199000000000,-0.000002670000000,0.000047100000000,0.003470000000000,0.004010000000000,
5500.000000000000000,-0.000005650000000,-0.000005620000000,-0.000006010000000,-0.000000004500000,0.000000077600000,0.000005800000000,0.000010100000000,-0.000000024800000,-0.000011600000000,0.000019300000000,0.000039600000000,-0.000200000000000,-0.000002740000000,0.000047200000000,0.003530000000000,0.004080000000000,
5600.000000000000000,-0.000005850000000,-0.000005820000000,-0.000006220000000,-0.000000004570000,0.000000078700000,0.000006020000000,0.000010400000000,-0.000000018000000,-0.000012100000000,0.000020400000000,0.000040900000000,-0.000207000000000,-0.000002780000000,0.000047900000000,0.003660000000000,0.004230000000000,
5700.000000000000000,-0.000006390000000,-0.000006350000000,-0.000006800000000,-0.000000004970000,0.000000083500000,0.000006300000000,0.000010900000000,-0.000000294000000,-0.000012900000000,0.000022200000000,0.000044800000000,-0.000227000000000,-0.000003020000000,0.000050800000000,0.003830000000000,0.004430000000000,
5800.000000000000000,-0.000007060000000,-0.000007020000000,-0.000007510000000,-0.000000005360000,0.000000086800000,0.000006550000000,0.000011400000000,-0.000000732000000,-0.000013800000000,0.000025300000000,0.000049400000000,-0.000251000000000,-0.000003260000000,0.000052800000000,0.003980000000000,0.004600000000000,
5900.000000000000000,-0.000007520000000,-0.000007470000000,-0.000008000000000,-0.000000005700000,0.000000091300000,0.000006620000000,0.000011500000000,-0.000001130000000,-0.000014400000000,0.000027700000000,0.000052500000000,-0.000268000000000,-0.000003470000000,0.000055500000000,0.004030000000000,0.004660000000000,
6000.000000000000000,-0.000007470000000,-0.000007430000000,-0.000007950000000,-0.000000005650000,0.000000092100000,0.000006660000000,0.000011500000000,-0.000001050000000,-0.000014400000000,0.000027400000000,0.000052200000000,-0.000266000000000,-0.000003430000000,0.000056000000000,0.004050000000000,0.004680000000000,
6100.000000000000000,-0.000007030000000,-0.000006990000000,-0.000007480000000,-0.000000005430000,0.000000090300000,0.000006680000000,0.000011600000000,-0.000000567000000,-0.000013900000000,0.000024500000000,0.000049200000000,-0.000249000000000,-0.000003300000000,0.000054900000000,0.004060000000000,0.004700000000000,
6200.000000000000000,-0.000006520000000,-0.000006480000000,-0.000006940000000,-0.000000005180000,0.000000087600000,0.000006700000000,0.000011600000000,-0.000000027600000,-0.000013400000000,0.000021400000000,0.000045700000000,-0.000230000000000,-0.000003150000000,0.000053300000000,0.004070000000000,0.004710000000000,
6300.000000000000000,-0.000006250000000,-0.000006210000000,-0.000006640000000,-0.000000005000000,0.000000087200000,0.000006700000000,0.000011600000000,0.000000258000000,-0.000013100000000,0.000020000000000,0.000043800000000,-0.000220000000000,-0.000003040000000,0.000053000000000,0.004070000000000,0.004710000000000,
6400.000000000000000,-0.000006560000000,-0.000006520000000,-0.000006970000000,-0.000000005170000,0.000000091800000,0.000006880000000,0.000011900000000,0.000000116000000,-0.000013700000000,0.000020400000000,0.000045900000000,-0.000230000000000,-0.000003150000000,0.000055800000000,0.004180000000000,0.004840000000000,
6500.000000000000000,-0.000007130000000,-0.000007090000000,-0.000007580000000,-0.000000005570000,0.000000095800000,0.000007130000000,0.000012400000000,-0.000000221000000,-0.000014500000000,0.000024400000000,0.000049800000000,-0.000252000000000,-0.000003390000000,0.000058300000000,0.004340000000000,0.005010000000000,
6600.000000000000000,-0.000008060000000,-0.000008010000000,-0.000008570000000,-0.000000006140000,0.000000098000000,0.000007410000000,0.000012800000000,-0.000000904000000,-0.000015700000000,0.000027800000000,0.000056200000000,-0.000285000000000,-0.000003730000000,0.000059600000000,0.004500000000000,0.005210000000000,
6700.000000000000000,-0.000008530000000,-0.000008480000000,-0.000009080000000,-0.000000006490000,0.000000101000000,0.000007560000000,0.000013100000000,-0.000001240000000,-0.000016400000000,0.000030700000000,0.000059600000000,-0.000303000000000,-0.000003950000000,0.000061700000000,0.004600000000000,0.005310000000000,
6800.000000000000000,-0.000008540000000,-0.000008490000000,-0.000009090000000,-0.000000006460000,0.000000101000000,0.000007720000000,0.000013400000000,-0.000001090000000,-0.000016500000000,0.000028900000000,0.000059800000000,-0.000302000000000,-0.000003930000000,0.000061600000000,0.004690000000000,0.005420000000000,
6900.000000000000000,-0.000008000000000,-0.000007960000000,-0.000008510000000,-0.000000006140000,0.000000098900000,0.000007750000000,0.000013400000000,-0.000000507000000,-0.000016000000000,0.000026700000000,0.000056000000000,-0.000282000000000,-0.000003740000000,0.000060200000000,0.004710000000000,0.005440000000000,
7000.000000000000000,-0.000007560000000,-0.000007510000000,-0.000008030000000,-0.000000005930000,0.000000098100000,0.000007640000000,0.000013200000000,-0.000000151000000,-0.000015400000000,0.000023300000000,0.000052900000000,-0.000265000000000,-0.000003610000000,0.000059700000000,0.004640000000000,0.005370000000000,
7100.000000000000000,-0.000007360000000,-0.000007320000000,-0.000007830000000,-0.000000005780000,0.000000099200000,0.000007590000000,0.000013200000000,0.000000001620000,-0.000015200000000,0.000022800000000,0.000051500000000,-0.000258000000000,-0.000003510000000,0.000060300000000,0.004620000000000,0.005340000000000,
7200.000000000000000,-0.000007590000000,-0.000007540000000,-0.000008060000000,-0.000000005770000,0.000000103000000,0.000007730000000,0.000013400000000,-0.000000088200000,-0.000015600000000,0.000023300000000,0.000053100000000,-0.000266000000000,-0.000003510000000,0.000062800000000,0.004700000000000,0.005430000000000,
7300.000000000000000,-0.000008120000000,-0.000008070000000,-0.000008630000000,-0.000000006370000,0.000000103000000,0.000007990000000,0.000013800000000,-0.000000381000000,-0.000016400000000,0.000026100000000,0.000056700000000,-0.000285000000000,-0.000003870000000,0.000062600000000,0.004860000000000,0.005610000000000,
7400.000000000000000,-0.000008670000000,-0.000008610000000,-0.000009210000000,-0.000000006700000,0.000000107000000,0.000008260000000,0.000014300000000,-0.000000674000000,-0.000017200000000,0.000027700000000,0.000060600000000,-0.000305000000000,-0.000004080000000,0.000064900000000,0.005020000000000,0.005810000000000,
7500.000000000000000,-0.000009190000000,-0.000009130000000,-0.000009770000000,-0.000000007090000,0.000000113000000,0.000008550000000,0.000014800000000,-0.000000927000000,-0.000018000000000,0.000029900000000,0.000064300000000,-0.000324000000000,-0.000004310000000,0.000068600000000,0.005200000000000,0.006010000000000,
7600.000000000000000,-0.000009340000000,-0.000009290000000,-0.000009930000000,-0.000000007310000,0.000000113000000,0.000008660000000,0.000015000000000,-0.000000971000000,-0.000018300000000,0.000030200000000,0.000065300000000,-0.000329000000000,-0.000004440000000,0.000069000000000,0.005270000000000,0.006090000000000,
7700.000000000000000,-0.000009250000000,-0.000009190000000,-0.000009830000000,-0.000000007300000,0.000000112000000,0.000008650000000,0.000015000000000,-0.000000881000000,-0.000018200000000,0.000029600000000,0.000064600000000,-0.000325000000000,-0.000004440000000,0.000067800000000,0.005260000000000,0.006080000000000,
7800.000000000000000,-0.000008880000000,-0.000008820000000,-0.000009430000000,-0.000000006910000,0.000000112000000,0.000008600000000,0.000014900000000,-0.000000546000000,-0.000017800000000,0.000027300000000,0.000062000000000,-0.000311000000000,-0.000004200000000,0.000068100000000,0.005230000000000,0.006050000000000,
7900.000000000000000,-0.000008580000000,-0.000008520000000,-0.000009120000000,-0.000000006800000,0.000000113000000,0.000008620000000,0.000014900000000,-0.000000228000000,-0.000017500000000,0.000025100000000,0.000060100000000,-0.000299000000000,-0.000004130000000,0.000068700000000,0.005240000000000,0.006050000000000,
8000.000000000000000,-0.000008420000000,-0.000008370000000,-0.000008950000000,-0.000000006700000,0.000000108000000,0.000008610000000,0.000014900000000,-0.000000068900000,-0.000017300000000,0.000024600000000,0.000059000000000,-0.000294000000000,-0.000004070000000,0.000065900000000,0.005240000000000,0.006050000000000,
8100.000000000000000,-0.000008620000000,-0.000008560000000,-0.000009150000000,-0.000000006910000,0.000000113000000,0.000008780000000,0.000015200000000,-0.000000105000000,-0.000017700000000,0.000024300000000,0.000060300000000,-0.000300000000000,-0.000004200000000,0.000068900000000,0.005340000000000,0.006170000000000,
8200.000000000000000,-0.000009190000000,-0.000009130000000,-0.000009760000000,-0.000000007290000,0.000000119000000,0.000009100000000,0.000015800000000,-0.000000375000000,-0.000018600000000,0.000027000000000,0.000064200000000,-0.000321000000000,-0.000004430000000,0.000072600000000,0.005530000000000,0.006390000000000,
8300.000000000000000,-0.000009880000000,-0.000009820000000,-0.000010500000000,-0.000000007730000,0.000000118000000,0.000009410000000,0.000016300000000,-0.000000778000000,-0.000019600000000,0.000030100000000,0.000069200000000,-0.000346000000000,-0.000004700000000,0.000071700000000,0.005720000000000,0.006610000000000,
8400.000000000000000,-0.000010600000000,-0.000010500000000,-0.000011200000000,-0.000000008270000,0.000000128000000,0.000009560000000,0.000016600000000,-0.000001340000000,-0.000020500000000,0.000033400000000,0.000073900000000,-0.000371000000000,-0.000005030000000,0.000078000000000,0.005810000000000,0.006720000000000,
8500.000000000000000,-0.000010600000000,-0.000010600000000,-0.000011300000000,-0.000000008260000,0.000000130000000,0.000009640000000,0.000016700000000,-0.000001340000000,-0.000020600000000,0.000032700000000,0.000074400000000,-0.000373000000000,-0.000005020000000,0.000078900000000,0.005860000000000,0.006780000000000,
8600.000000000000000,-0.000010300000000,-0.000010200000000,-0.000010900000000,-0.000000008070000,0.000000115000000,0.000009670000000,0.000016800000000,-0.000000925000000,-0.000020300000000,0.000031100000000,0.000071700000000,-0.000359000000000,-0.000004910000000,0.000070100000000,0.005880000000000,0.006790000000000,
8700.000000000000000,-0.000009590000000,-0.000009520000000,-0.000010200000000,-0.000000007700000,0.000000130000000,0.000009620000000,0.000016700000000,-0.000000257000000,-0.000019500000000,0.000026700000000,0.000067100000000,-0.000333000000000,-0.000004680000000,0.000079000000000,0.005850000000000,0.006760000000000,
8800.000000000000000,-0.000009280000000,-0.000009220000000,-0.000009850000000,-0.000000007190000,0.000000128000000,0.000009580000000,0.000016600000000,0.000000020700000,-0.000019200000000,0.000024600000000,0.000065000000000,-0.000321000000000,-0.000004380000000,0.000078100000000,0.005830000000000,0.006740000000000,
8900.000000000000000,-0.000009330000000,-0.000009260000000,-0.000009900000000,-0.000000007220000,0.000000122000000,0.000009680000000,0.000016800000000,0.000000070800000,-0.000019300000000,0.000024400000000,0.000065300000000,-0.000322000000000,-0.000004390000000,0.000074200000000,0.005890000000000,0.006800000000000,
9000.000000000000000,-0.000009880000000,-0.000009810000000,-0.000010500000000,-0.000000007730000,0.000000134000000,0.000009910000000,0.000017200000000,-0.000000267000000,-0.000020100000000,0.000026700000000,0.000069100000000,-0.000342000000000,-0.000004700000000,0.000081500000000,0.006030000000000,0.006970000000000,
9100.000000000000000,-0.000010700000000,-0.000010600000000,-0.000011400000000,-0.000000008200000,0.000000134000000,0.000010200000000,0.000017700000000,-0.000000827000000,-0.000021300000000,0.000030700000000,0.000074900000000,-0.000373000000000,-0.000004980000000,0.000081500000000,0.006210000000000,0.007180000000000,
9200.000000000000000,-0.000011300000000,-0.000011200000000,-0.000012000000000,-0.000000008540000,0.000000141000000,0.000010400000000,0.000018000000000,-0.000001270000000,-0.000022100000000,0.000033100000000,0.000079200000000,-0.000395000000000,-0.000005200000000,0.000085800000000,0.006320000000000,0.007310000000000,
9300.000000000000000,-0.000011700000000,-0.000011700000000,-0.000012500000000,-0.000000009020000,0.000000139000000,0.000010600000000,0.000018400000000,-0.000001500000000,-0.000022700000000,0.000034500000000,0.000082200000000,-0.000410000000000,-0.000005490000000,0.000084600000000,0.006450000000000,0.007450000000000,
9400.000000000000000,-0.000011300000000,-0.000011200000000,-0.000012000000000,-0.000000008970000,0.000000141000000,0.000010700000000,0.000018500000000,-0.000000940000000,-0.000022300000000,0.000031400000000,0.000078800000000,-0.000392000000000,-0.000005460000000,0.000086000000000,0.006500000000000,0.007510000000000,
9500.000000000000000,-0.000010900000000,-0.000010900000000,-0.000011600000000,-0.000000008990000,0.000000148000000,0.000010700000000,0.000018500000000,-0.000000619000000,-0.000021900000000,0.000029700000000,0.000076500000000,-0.000379000000000,-0.000005470000000,0.000090300000000,0.006480000000000,0.007490000000000,
9600.000000000000000,-0.000010600000000,-0.000010500000000,-0.000011200000000,-0.000000008330000,0.000000154000000,0.000010600000000,0.000018300000000,-0.000000290000000,-0.000021500000000,0.000027000000000,0.000074100000000,-0.000364000000000,-0.000005060000000,0.000093500000000,0.006440000000000,0.007440000000000,
9700.000000000000000,-0.000010600000000,-0.000010500000000,-0.000011200000000,-0.000000007850000,0.000000150000000,0.000010600000000,0.000018400000000,-0.000000269000000,-0.000021500000000,0.000026900000000,0.000074300000000,-0.000365000000000,-0.000004770000000,0.000091100000000,0.006460000000000,0.007470000000000,
9800.000000000000000,-0.000010700000000,-0.000010700000000,-0.000011400000000,-0.000000008180000,0.000000145000000,0.000010800000000,0.000018600000000,-0.000000295000000,-0.000021800000000,0.000026900000000,0.000075200000000,-0.000370000000000,-0.000004970000000,0.000088400000000,0.006540000000000,0.007560000000000,
9900.000000000000000,-0.000011300000000,-0.000011200000000,-0.000012000000000,-0.000000008980000,0.000000161000000,0.000011000000000,0.000019000000000,-0.000000683000000,-0.000022700000000,0.000029700000000,0.000079300000000,-0.000391000000000,-0.000005460000000,0.000098200000000,0.006680000000000,0.007720000000000,
10000.000000000000000,-0.000012000000000,-0.000011900000000,-0.000012700000000,-0.000000009140000,0.000000165000000,0.000011300000000,0.000019600000000,-0.000001080000000,-0.000023700000000,0.000032400000000,0.000084200000000,-0.000416000000000,-0.000005560000000,0.000100000000000,0.006860000000000,0.007930000000000,
10100.000000000000000,-0.000012500000000,-0.000012400000000,-0.000013200000000,-0.000000009150000,0.000000191000000,0.000011500000000,0.000019900000000,-0.000001360000000,-0.000024300000000,0.000034000000000,0.000087400000000,-0.000432000000000,-0.000005570000000,0.000116000000000,0.006980000000000,0.008070000000000,
10200.000000000000000,-0.000012600000000,-0.000012500000000,-0.000013400000000,-0.000000009280000,0.000000187000000,0.000011600000000,0.000020200000000,-0.000001370000000,-0.000024700000000,0.000033900000000,0.000088600000000,-0.000438000000000,-0.000005640000000,0.000114000000000,0.007080000000000,0.008190000000000,
10300.000000000000000,-0.000012400000000,-0.000012300000000,-0.000013200000000,-0.000000009630000,0.000000169000000,0.000011600000000,0.000020100000000,-0.000001170000000,-0.000024400000000,0.000032500000000,0.000086900000000,-0.000429000000000,-0.000005860000000,0.000103000000000,0.007060000000000,0.008160000000000,
10400.000000000000000,-0.000012100000000,-0.000012000000000,-0.000012800000000,-0.000000009470000,0.000000213000000,0.000011600000000,0.000020000000000,-0.000000906000000,-0.000024000000000,0.000030900000000,0.000084900000000,-0.000418000000000,-0.000005760000000,0.000130000000000,0.007030000000000,0.008130000000000,
10500.000000000000000,-0.000011700000000,-0.000011600000000,-0.000012400000000,-0.000000008810000,0.000000204000000,0.000011500000000,0.000020000000000,-0.000000526000000,-0.000023600000000,0.000028100000000,0.000082400000000,-0.000403000000000,-0.000005360000000,0.000124000000000,0.007020000000000,0.008110000000000,
10600.000000000000000,-0.000011700000000,-0.000011600000000,-0.000012400000000,-0.000000008770000,0.000000194000000,0.000011600000000,0.000020200000000,-0.000000385000000,-0.000023700000000,0.000027200000000,0.000082100000000,-0.000400000000000,-0.000005340000000,0.000118000000000,0.007080000000000,0.008180000000000,
10700.000000000000000,-0.000011900000000,-0.000011800000000,-0.000012600000000,-0.000000008800000,0.000000221000000,0.000011800000000,0.000020400000000,-0.000000422000000,-0.000024000000000,0.000027200000000,0.000083300000000,-0.000406000000000,-0.000005350000000,0.000135000000000,0.007170000000000,0.008280000000000,
10800.000000000000000,-0.000012600000000,-0.000012500000000,-0.000013400000000,-0.000000009150000,0.000000220000000,0.000012100000000,0.000021000000000,-0.000000881000000,-0.000025100000000,0.000030400000000,0.000088600000000,-0.000433000000000,-0.000005560000000,0.000134000000000,0.007350000000000,0.008500000000000,
10900.000000000000000,-0.000013400000000,-0.000013300000000,-0.000014200000000,-0.000000009410000,0.000000247000000,0.000012300000000,0.000021400000000,-0.000001480000000,-0.000026100000000,0.000033900000000,0.000094400000000,-0.000462000000000,-0.000005720000000,0.000150000000000,0.007490000000000,0.008660000000000,
11000.000000000000000,-0.000013900000000,-0.000013800000000,-0.000014800000000,-0.000000009810000,0.000000257000000,0.000012600000000,0.000021800000000,-0.000001790000000,-0.000026900000000,0.000036100000000,0.000098000000000,-0.000481000000000,-0.000005970000000,0.000157000000000,0.007640000000000,0.008830000000000,
11100.000000000000000,-0.000014100000000,-0.000014000000000,-0.000014900000000,-0.000000009680000,0.000000249000000,0.000012600000000,0.000021900000000,-0.000001830000000,-0.000027100000000,0.000035800000000,0.000099000000000,-0.000485000000000,-0.000005880000000,0.000152000000000,0.007690000000000,0.008890000000000,
11200.000000000000000,-0.000013700000000,-0.000013600000000,-0.000014500000000,-0.000000009820000,0.000000287000000,0.000012600000000,0.000021900000000,-0.000001460000000,-0.000026700000000,0.000033500000000,0.000096300000000,-0.000470000000000,-0.000005970000000,0.000175000000000,0.007670000000000,0.008860000000000,
11300.000000000000000,-0.000013200000000,-0.000013100000000,-0.000014000000000,-0.000000009910000,0.000000284000000,0.000012600000000,0.000021800000000,-0.000001070000000,-0.000026200000000,0.000030900000000,0.000093500000000,-0.000454000000000,-0.000006030000000,0.000172000000000,0.007640000000000,0.008830000000000,
11400.000000000000000,-0.000012900000000,-0.000012800000000,-0.000013700000000,-0.000000009480000,0.000000274000000,0.000012500000000,0.000021700000000,-0.000000740000000,-0.000025800000000,0.000028600000000,0.000091200000000,-0.000441000000000,-0.000005770000000,0.000167000000000,0.007630000000000,0.008820000000000,
11500.000000000000000,-0.000013000000000,-0.000012900000000,-0.000013800000000,-0.000000009110000,0.000000303000000,0.000012700000000,0.000021900000000,-0.000000729000000,-0.000026100000000,0.000027900000000,0.000092100000000,-0.000444000000000,-0.000005540000000,0.000184000000000,0.007700000000000,0.008900000000000,
11600.000000000000000,-0.000013400000000,-0.000013300000000,-0.000014200000000,-0.000000008950000,0.000000315000000,0.000012900000000,0.000022300000000,-0.000000917000000,-0.000026700000000,0.000029100000000,0.000094700000000,-0.000457000000000,-0.000005440000000,0.000192000000000,0.007820000000000,0.009040000000000,
11700.000000000000000,-0.000014200000000,-0.000014100000000,-0.000015100000000,-0.000000009440000,0.000000320000000,0.000013100000000,0.000022800000000,-0.000001550000000,-0.000027800000000,0.000033100000000,0.000101000000000,-0.000489000000000,-0.000005740000000,0.000195000000000,0.007980000000000,0.009220000000000,
11800.000000000000000,-0.000014900000000,-0.000014800000000,-0.000015800000000,-0.000000009740000,0.000000374000000,0.000013300000000,0.000023100000000,-0.000002000000000,-0.000028700000000,0.000035800000000,0.000105000000000,-0.000512000000000,-0.000005920000000,0.000228000000000,0.008100000000000,0.009370000000000,
11900.000000000000000,-0.000015300000000,-0.000015200000000,-0.000016300000000,-0.000000009470000,0.000000365000000,0.000013600000000,0.000023500000000,-0.000002230000000,-0.000029400000000,0.000037100000000,0.000109000000000,-0.000528000000000,-0.000005760000000,0.000222000000000,0.008250000000000,0.009540000000000,
12000.000000000000000,-0.000015400000000,-0.000015200000000,-0.000016300000000,-0.000000009850000,0.000000368000000,0.000013600000000,0.000023600000000,-0.000002180000000,-0.000029500000000,0.000036600000000,0.000109000000000,-0.000529000000000,-0.000005990000000,0.000224000000000,0.008290000000000,0.009590000000000,
12100.000000000000000,-0.000015000000000,-0.000014900000000,-0.000015900000000,-0.000000009970000,0.000000401000000,0.000013600000000,0.000023600000000,-0.000001830000000,-0.000029100000000,0.000034500000000,0.000106000000000,-0.000515000000000,-0.000006060000000,0.000244000000000,0.008280000000000,0.009570000000000,
12200.000000000000000,-0.000014600000000,-0.000014500000000,-0.000015500000000,-0.000000009830000,0.000000399000000,0.000013600000000,0.000023500000000,-0.000001480000000,-0.000028600000000,0.000031700000000,0.000104000000000,-0.000500000000000,-0.000005980000000,0.000243000000000,0.008240000000000,0.009530000000000,
12300.000000000000000,-0.000014300000000,-0.000014200000000,-0.000015200000000,-0.000000009340000,0.000000374000000,0.000013600000000,0.000023500000000,-0.000001150000000,-0.000028300000000,0.000029500000000,0.000102000000000,-0.000488000000000,-0.000005680000000,0.000228000000000,0.008260000000000,0.009550000000000,
12400.000000000000000,-0.000014500000000,-0.000014400000000,-0.000015400000000,-0.000000009590000,0.000000419000000,0.000013700000000,0.000023800000000,-0.000001210000000,-0.000028600000000,0.000030000000000,0.000103000000000,-0.000494000000000,-0.000005830000000,0.000255000000000,0.008330000000000,0.009630000000000,
12500.000000000000000,-0.000014900000000,-0.000014800000000,-0.000015800000000,-0.000000009660000,0.000000404000000,0.000013900000000,0.000024100000000,-0.000001460000000,-0.000029300000000,0.000030900000000,0.000106000000000,-0.000509000000000,-0.000005880000000,0.000246000000000,0.008460000000000,0.009780000000000,
12600.000000000000000,-0.000015700000000,-0.000015500000000,-0.000016600000000,-0.000000010200000,0.000000433000000,0.000014100000000,0.000024500000000,-0.000001990000000,-0.000030300000000,0.000034300000000,0.000111000000000,-0.000536000000000,-0.000006220000000,0.000263000000000,0.008590000000000,0.009930000000000,
12700.000000000000000,-0.000016200000000,-0.000016000000000,-0.000017100000000,-0.000000010400000,0.000000449000000,0.000014400000000,0.000024900000000,-0.000002260000000,-0.000031000000000,0.000036300000000,0.000115000000000,-0.000554000000000,-0.000006350000000,0.000273000000000,0.008740000000000,0.010100000000000,
12800.000000000000000,-0.000016600000000,-0.000016400000000,-0.000017600000000,-0.000000010200000,0.000000431000000,0.000014600000000,0.000025300000000,-0.000002500000000,-0.000031700000000,0.000037400000000,0.000118000000000,-0.000568000000000,-0.000006210000000,0.000262000000000,0.008860000000000,0.010200000000000,
12900.000000000000000,-0.000016500000000,-0.000016400000000,-0.000017500000000,-0.000000010100000,0.000000448000000,0.000014600000000,0.000025400000000,-0.000002340000000,-0.000031600000000,0.000036300000000,0.000117000000000,-0.000565000000000,-0.000006160000000,0.000272000000000,0.008900000000000,0.010300000000000,
13000.000000000000000,-0.000016100000000,-0.000016000000000,-0.000017000000000,-0.000000010400000,0.000000448000000,0.000014600000000,0.000025300000000,-0.000001960000000,-0.000031200000000,0.000034000000000,0.000114000000000,-0.000549000000000,-0.000006340000000,0.000272000000000,0.008880000000000,0.010300000000000,
13100.000000000000000,-0.000015700000000,-0.000015500000000,-0.000016600000000,-0.000000010200000,0.000000408000000,0.000014600000000,0.000025200000000,-0.000001580000000,-0.000030700000000,0.000030800000000,0.000111000000000,-0.000533000000000,-0.000006200000000,0.000248000000000,0.008850000000000,0.010200000000000,
13200.000000000000000,-0.000015400000000,-0.000015300000000,-0.000016300000000,-0.000000010500000,0.000000435000000,0.000014600000000,0.000025300000000,-0.000001260000000,-0.000030500000000,0.000029200000000,0.000109000000000,-0.000522000000000,-0.000006370000000,0.000264000000000,0.008880000000000,0.010300000000000,
13300.000000000000000,-0.000015600000000,-0.000015500000000,-0.000016600000000,-0.000000010800000,0.000000400000000,0.000014800000000,0.000025600000000,-0.000001310000000,-0.000030900000000,0.000029700000000,0.000111000000000,-0.000530000000000,-0.000006600000000,0.000243000000000,0.008990000000000,0.010400000000000,
13400.000000000000000,-0.000016000000000,-0.000015900000000,-0.000017000000000,-0.000000010900000,0.000000396000000,0.000015000000000,0.000026000000000,-0.000001510000000,-0.000031500000000,0.000030700000000,0.000114000000000,-0.000543000000000,-0.000006640000000,0.000241000000000,0.009110000000000,0.010500000000000,
13500.000000000000000,-0.000016600000000,-0.000016500000000,-0.000017600000000,-0.000000011700000,0.000000428000000,0.000015200000000,0.000026400000000,-0.000001880000000,-0.000032300000000,0.000033100000000,0.000118000000000,-0.000565000000000,-0.000007090000000,0.000261000000000,0.009250000000000,0.010700000000000,
13600.000000000000000,-0.000017000000000,-0.000016900000000,-0.000018000000000,-0.000000011900000,0.000000389000000,0.000015400000000,0.000026700000000,-0.000002080000000,-0.000032900000000,0.000034600000000,0.000120000000000,-0.000578000000000,-0.000007220000000,0.000237000000000,0.009370000000000,0.010800000000000,
13700.000000000000000,-0.000017300000000,-0.000017200000000,-0.000018300000000,-0.000000012000000,0.000000351000000,0.000015600000000,0.000027000000000,-0.000002260000000,-0.000033400000000,0.000035200000000,0.000122000000000,-0.000589000000000,-0.000007270000000,0.000213000000000,0.009470000000000,0.010900000000000,
13800.000000000000000,-0.000017000000000,-0.000016900000000,-0.000018000000000,-0.000000011900000,0.000000374000000,0.000015700000000,0.000027100000000,-0.000001870000000,-0.000033200000000,0.000033400000000,0.000120000000000,-0.000578000000000,-0.000007210000000,0.000228000000000,0.009520000000000,0.011000000000000,
13900.000000000000000,-0.000016600000000,-0.000016500000000,-0.000017600000000,-0.000000012300000,0.000000312000000,0.000015600000000,0.000027100000000,-0.000001480000000,-0.000032700000000,0.000030600000000,0.000117000000000,-0.000562000000000,-0.000007450000000,0.000190000000000,0.009500000000000,0.011000000000000,
14000.000000000000000,-0.000016200000000,-0.000016000000000,-0.000017100000000,-0.000000012600000,0.000000294000000,0.000015600000000,0.000027100000000,-0.000001030000000,-0.000032300000000,0.000028100000000,0.000114000000000,-0.000544000000000,-0.000007670000000,0.000179000000000,0.009500000000000,0.011000000000000,
14100.000000000000000,-0.000015900000000,-0.000015700000000,-0.000016800000000,-0.000000012500000,0.000000290000000,0.000015700000000,0.000027200000000,-0.000000635000000,-0.000032000000000,0.000025600000000,0.000111000000000,-0.000531000000000,-0.000007620000000,0.000176000000000,0.009530000000000,0.011000000000000,
14200.000000000000000,-0.000016100000000,-0.000015900000000,-0.000017000000000,-0.000000013100000,0.000000239000000,0.000015800000000,0.000027400000000,-0.000000713000000,-0.000032400000000,0.000026000000000,0.000113000000000,-0.000539000000000,-0.000007950000000,0.000145000000000,0.009630000000000,0.011100000000000,
14300.000000000000000,-0.000016400000000,-0.000016200000000,-0.000017300000000,-0.000000013300000,0.000000211000000,0.000016100000000,0.000027900000000,-0.000000755000000,-0.000033000000000,0.000026800000000,0.000114000000000,-0.000549000000000,-0.000008110000000,0.000128000000000,0.009790000000000,0.011300000000000,
14400.000000000000000,-0.000016900000000,-0.000016700000000,-0.000017900000000,-0.000000014600000,0.000000205000000,0.000016300000000,0.000028300000000,-0.000001020000000,-0.000033700000000,0.000029200000000,0.000117000000000,-0.000567000000000,-0.000008870000000,0.000125000000000,0.009940000000000,0.011500000000000,
14500.000000000000000,-0.000017200000000,-0.000017000000000,-0.000018200000000,-0.000000015100000,0.000000138000000,0.000016500000000,0.000028500000000,-0.000001190000000,-0.000034100000000,0.000029600000000,0.000119000000000,-0.000576000000000,-0.000009150000000,0.000083900000000,0.010000000000000,0.011600000000000,
14600.000000000000000,-0.000017300000000,-0.000017100000000,-0.000018300000000,-0.000000015800000,0.000000137000000,0.000016700000000,0.000028900000000,-0.000001110000000,-0.000034400000000,0.000029800000000,0.000120000000000,-0.000579000000000,-0.000009610000000,0.000083400000000,0.010100000000000,0.011700000000000,
14700.000000000000000,-0.000017000000000,-0.000016800000000,-0.000018000000000,-0.000000015800000,0.000000094700000,0.000016700000000,0.000028900000000,-0.000000794000000,-0.000034200000000,0.000027500000000,0.000118000000000,-0.000568000000000,-0.000009600000000,0.000057600000000,0.010100000000000,0.011700000000000,
14800.000000000000000,-0.000016400000000,-0.000016300000000,-0.000017400000000,-0.000000015600000,0.000000036700000,0.000016700000000,0.000029000000000,-0.000000200000000,-0.000033600000000,0.000023800000000,0.000113000000000,-0.000546000000000,-0.000009460000000,0.000022300000000,0.010200000000000,0.011700000000000,
14900.000000000000000,-0.000016100000000,-0.000015900000000,-0.000017000000000,-0.000000015600000,0.000000033600000,0.000016700000000,0.000028900000000,0.000000143000000,-0.000033200000000,0.000021300000000,0.000111000000000,-0.000532000000000,-0.000009500000000,0.000020400000000,0.010100000000000,0.011700000000000,
15000.000000000000000,-0.000015900000000,-0.000015700000000,-0.000016800000000,-0.000000016200000,-0.000000005280000,0.000016700000000,0.000029000000000,0.000000425000000,-0.000033100000000,0.000019500000000,0.000109000000000,-0.000523000000000,-0.000009830000000,-0.000003210000000,0.010200000000000,0.011800000000000,
15100.000000000000000,-0.000016100000000,-0.000016000000000,-0.000017100000000,-0.000000016800000,-0.000000054200000,0.000016900000000,0.000029300000000,0.000000339000000,-0.000033500000000,0.000020500000000,0.000111000000000,-0.000533000000000,-0.000010200000000,-0.000032900000000,0.010300000000000,0.011900000000000,
15200.000000000000000,-0.000016400000000,-0.000016300000000,-0.000017300000000,-0.000000017800000,-0.000000053600000,0.000017200000000,0.000029800000000,0.000000319000000,-0.000034100000000,0.000021400000000,0.000112000000000,-0.000542000000000,-0.000010800000000,-0.000032600000000,0.010500000000000,0.012100000000000,
15300.000000000000000,-0.000016800000000,-0.000016700000000,-0.000017800000000,-0.000000018900000,-0.000000125000000,0.000017400000000,0.000030200000000,0.000000098400000,-0.000034700000000,0.000023300000000,0.000115000000000,-0.000557000000000,-0.000011500000000,-0.000076000000000,0.010600000000000,0.012200000000000,
15400.000000000000000,-0.000017000000000,-0.000016800000000,-0.000017900000000,-0.000000019500000,-0.000000151000000,0.000017600000000,0.000030400000000,0.000000108000000,-0.000035000000000,0.000022900000000,0.000115000000000,-0.000561000000000,-0.000011900000000,-0.000091700000000,0.010700000000000,0.012300000000000,
15500.000000000000000,-0.000017000000000,-0.000016900000000,-0.000018000000000,-0.000000019500000,-0.000000143000000,0.000017700000000,0.000030600000000,0.000000195000000,-0.000035200000000,0.000022000000000,0.000115000000000,-0.000561000000000,-0.000011800000000,-0.000086900000000,0.010800000000000,0.012400000000000,
15600.000000000000000,-0.000016800000000,-0.000016600000000,-0.000017700000000,-0.000000019100000,-0.000000180000000,0.000017700000000,0.000030700000000,0.000000480000000,-0.000035000000000,0.000020000000000,0.000114000000000,-0.000552000000000,-0.000011600000000,-0.000110000000000,0.010800000000000,0.012500000000000,
15700.000000000000000,-0.000016500000000,-0.000016300000000,-0.000017400000000,-0.000000019100000,-0.000000204000000,0.000017800000000,0.000030800000000,0.000000855000000,-0.000034700000000,0.000017700000000,0.000112000000000,-0.000539000000000,-0.000011600000000,-0.000124000000000,0.010800000000000,0.012500000000000,
15800.000000000000000,-0.000016200000000,-0.000016000000000,-0.000017100000000,-0.000000019300000,-0.000000184000000,0.000017800000000,0.000030800000000,0.000001130000000,-0.000034400000000,0.000015700000000,0.000110000000000,-0.000528000000000,-0.000011700000000,-0.000112000000000,0.010800000000000,0.012500000000000,
15900.000000000000000,-0.000016200000000,-0.000016100000000,-0.000017100000000,-0.000000019900000,-0.000000238000000,0.000017900000000,0.000030900000000,0.000001210000000,-0.000034500000000,0.000015100000000,0.000110000000000,-0.000528000000000,-0.000012100000000,-0.000145000000000,0.010900000000000,0.012500000000000,
16000.000000000000000,-0.000016600000000,-0.000016400000000,-0.000017500000000,-0.000000020200000,-0.000000225000000,0.000018000000000,0.000031200000000,0.000001020000000,-0.000035100000000,0.000015900000000,0.000112000000000,-0.000540000000000,-0.000012300000000,-0.000137000000000,0.011000000000000,0.012700000000000,
16100.000000000000000,-0.000016900000000,-0.000016800000000,-0.000017900000000,-0.000000020500000,-0.000000211000000,0.000018300000000,0.000031700000000,0.000000878000000,-0.000035700000000,0.000016900000000,0.000115000000000,-0.000552000000000,-0.000012500000000,-0.000128000000000,0.011100000000000,0.012800000000000,
16200.000000000000000,-0.000017400000000,-0.000017300000000,-0.000018400000000,-0.000000020600000,-0.000000233000000,0.000018500000000,0.000032100000000,0.000000593000000,-0.000036400000000,0.000018300000000,0.000118000000000,-0.000570000000000,-0.000012600000000,-0.000142000000000,0.011300000000000,0.013000000000000,
16300.000000000000000,-0.000017700000000,-0.000017500000000,-0.000018700000000,-0.000000020700000,-0.000000202000000,0.000018600000000,0.000032300000000,0.000000427000000,-0.000036800000000,0.000019000000000,0.000120000000000,-0.000580000000000,-0.000012600000000,-0.000123000000000,0.011300000000000,0.013100000000000,
16400.000000000000000,-0.000017900000000,-0.000017700000000,-0.000018900000000,-0.000000020700000,-0.000000187000000,0.000018700000000,0.000032400000000,0.000000364000000,-0.000037100000000,0.000018700000000,0.000121000000000,-0.000584000000000,-0.000012600000000,-0.000114000000000,0.011400000000000,0.013200000000000,
16500.000000000000000,-0.000017700000000,-0.000017600000000,-0.000018700000000,-0.000000020500000,-0.000000185000000,0.000018700000000,0.000032500000000,0.000000538000000,-0.000037000000000,0.000017100000000,0.000121000000000,-0.000578000000000,-0.000012500000000,-0.000113000000000,0.011400000000000,0.013200000000000,
16600.000000000000000,-0.000017600000000,-0.000017400000000,-0.000018600000000,-0.000000020000000,-0.000000133000000,0.000018800000000,0.000032500000000,0.000000677000000,-0.000036900000000,0.000015500000000,0.000120000000000,-0.000574000000000,-0.000012200000000,-0.000081000000000,0.011400000000000,0.013200000000000,
16700.000000000000000,-0.000017600000000,-0.000017400000000,-0.000018600000000,-0.000000019400000,-0.000000117000000,0.000018800000000,0.000032600000000,0.000000754000000,-0.000036900000000,0.000014300000000,0.000120000000000,-0.000572000000000,-0.000011800000000,-0.000071100000000,0.011400000000000,0.013200000000000,
16800.000000000000000,-0.000017800000000,-0.000017700000000,-0.000018800000000,-0.000000018700000,-0.000000086300000,0.000018900000000,0.000032700000000,0.000000560000000,-0.000037200000000,0.000014200000000,0.000122000000000,-0.000580000000000,-0.000011400000000,-0.000052500000000,0.011500000000000,0.013300000000000,
16900.000000000000000,-0.000018300000000,-0.000018200000000,-0.000019400000000,-0.000000018500000,-0.000000018700000,0.000019100000000,0.000033100000000,0.000000226000000,-0.000037900000000,0.000015500000000,0.000126000000000,-0.000597000000000,-0.000011300000000,-0.000011400000000,0.011600000000000,0.013400000000000,
17000.000000000000000,-0.000018900000000,-0.000018700000000,-0.000020000000000,-0.000000018600000,0.000000006120000,0.000019300000000,0.000033400000000,-0.000000160000000,-0.000038700000000,0.000017700000000,0.000130000000000,-0.000619000000000,-0.000011300000000,0.000003720000000,0.011700000000000,0.013600000000000,
17100.000000000000000,-0.000019600000000,-0.000019400000000,-0.000020700000000,-0.000000018600000,0.000000059400000,0.000019500000000,0.000033800000000,-0.000000650000000,-0.000039600000000,0.000020200000000,0.000135000000000,-0.000643000000000,-0.000011300000000,0.000036100000000,0.011900000000000,0.013700000000000,
17200.000000000000000,-0.000020000000000,-0.000019800000000,-0.000021100000000,-0.000000018200000,0.000000151000000,0.000019600000000,0.000034000000000,-0.000000967000000,-0.000040200000000,0.000021300000000,0.000139000000000,-0.000658000000000,-0.000011100000000,0.000091700000000,0.011900000000000,0.013800000000000,
17300.000000000000000,-0.000020300000000,-0.000020100000000,-0.000021400000000,-0.000000017200000,0.000000187000000,0.000019700000000,0.000034100000000,-0.000001170000000,-0.000040500000000,0.000021400000000,0.000141000000000,-0.000667000000000,-0.000010500000000,0.000114000000000,0.012000000000000,0.013800000000000,
17400.000000000000000,-0.000020200000000,-0.000020000000000,-0.000021300000000,-0.000000016500000,0.000000238000000,0.000019700000000,0.000034200000000,-0.000001000000000,-0.000040400000000,0.000019600000000,0.000140000000000,-0.000661000000000,-0.000010000000000,0.000145000000000,0.012000000000000,0.013900000000000,
17500.000000000000000,-0.000020300000000,-0.000020100000000,-0.000021400000000,-0.000000015600000,0.000000325000000,0.000019700000000,0.000034200000000,-0.000001070000000,-0.000040600000000,0.000018900000000,0.000142000000000,-0.000664000000000,-0.000009490000000,0.000198000000000,0.012000000000000,0.013900000000000,
17600.000000000000000,-0.000020500000000,-0.000020300000000,-0.000021600000000,-0.000000014800000,0.000000363000000,0.000019800000000,0.000034300000000,-0.000001290000000,-0.000040800000000,0.000018900000000,0.000144000000000,-0.000672000000000,-0.000009020000000,0.000220000000000,0.012000000000000,0.013900000000000,
17700.000000000000000,-0.000020900000000,-0.000020700000000,-0.000022000000000,-0.000000014400000,0.000000446000000,0.000019900000000,0.000034400000000,-0.000001580000000,-0.000041300000000,0.000019700000000,0.000147000000000,-0.000685000000000,-0.000008740000000,0.000271000000000,0.012100000000000,0.014000000000000,
17800.000000000000000,-0.000021400000000,-0.000021200000000,-0.000022600000000,-0.000000013600000,0.000000529000000,0.000020000000000,0.000034700000000,-0.000001990000000,-0.000042100000000,0.000021500000000,0.000151000000000,-0.000706000000000,-0.000008290000000,0.000322000000000,0.012200000000000,0.014100000000000,
17900.000000000000000,-0.000022000000000,-0.000021800000000,-0.000023300000000,-0.000000013200000,0.000000575000000,0.000020200000000,0.000035100000000,-0.000002420000000,-0.000042900000000,0.000023100000000,0.000156000000000,-0.000727000000000,-0.000008000000000,0.000350000000000,0.012300000000000,0.014200000000000,
18000.000000000000000,-0.000022800000000,-0.000022500000000,-0.000024100000000,-0.000000012500000,0.000000646000000,0.000020400000000,0.000035400000000,-0.000003010000000,-0.000043800000000,0.000025600000000,0.000162000000000,-0.000754000000000,-0.000007630000000,0.000393000000000,0.012400000000000,0.014300000000000,
18100.000000000000000,-0.000023200000000,-0.000022900000000,-0.000024500000000,-0.000000011700000,0.000000719000000,0.000020500000000,0.000035600000000,-0.000003280000000,-0.000044400000000,0.000026200000000,0.000165000000000,-0.000768000000000,-0.000007100000000,0.000438000000000,0.012500000000000,0.014400000000000,
18200.000000000000000,-0.000023400000000,-0.000023100000000,-0.000024700000000,-0.000000011300000,0.000000752000000,0.000020600000000,0.000035700000000,-0.000003400000000,-0.000044700000000,0.000026400000000,0.000167000000000,-0.000775000000000,-0.000006880000000,0.000457000000000,0.012500000000000,0.014500000000000,
18300.000000000000000,-0.000023300000000,-0.000023000000000,-0.000024600000000,-0.000000011300000,0.000000816000000,0.000020600000000,0.000035800000000,-0.000003290000000,-0.000044600000000,0.000025200000000,0.000167000000000,-0.000771000000000,-0.000006860000000,0.000496000000000,0.012500000000000,0.014500000000000,
18400.000000000000000,-0.000023300000000,-0.000023100000000,-0.000024600000000,-0.000000010700000,0.000000850000000,0.000020700000000,0.000035900000000,-0.000003300000000,-0.000044700000000,0.000024300000000,0.000168000000000,-0.000772000000000,-0.000006530000000,0.000517000000000,0.012600000000000,0.014500000000000,
18500.000000000000000,-0.000023400000000,-0.000023200000000,-0.000024700000000,-0.000000009530000,0.000000880000000,0.000020700000000,0.000036000000000,-0.000003320000000,-0.000044900000000,0.000023300000000,0.000169000000000,-0.000774000000000,-0.000005800000000,0.000535000000000,0.012600000000000,0.014600000000000,
18600.000000000000000,-0.000023600000000,-0.000023400000000,-0.000024900000000,-0.000000008940000,0.000000932000000,0.000020800000000,0.000036200000000,-0.000003380000000,-0.000045100000000,0.000022800000000,0.000170000000000,-0.000780000000000,-0.000005440000000,0.000567000000000,0.012700000000000,0.014700000000000,
18700.000000000000000,-0.000024100000000,-0.000023800000000,-0.000025400000000,-0.000000009110000,0.000000944000000,0.000021000000000,0.000036500000000,-0.000003690000000,-0.000045800000000,0.000024300000000,0.000174000000000,-0.000797000000000,-0.000005540000000,0.000574000000000,0.012800000000000,0.014800000000000,
18800.000000000000000,-0.000024500000000,-0.000024200000000,-0.000025800000000,-0.000000009140000,0.000000950000000,0.000021200000000,0.000036800000000,-0.000003920000000,-0.000046400000000,0.000025300000000,0.000176000000000,-0.000810000000000,-0.000005560000000,0.000578000000000,0.012900000000000,0.014900000000000,
18900.000000000000000,-0.000024900000000,-0.000024700000000,-0.000026300000000,-0.000000009940000,0.000000987000000,0.000021400000000,0.000037100000000,-0.000004230000000,-0.000047000000000,0.000027100000000,0.000180000000000,-0.000827000000000,-0.000006050000000,0.000600000000000,0.013000000000000,0.015000000000000,
19000.000000000000000,-0.000024900000000,-0.000024700000000,-0.000026300000000,-0.000000009730000,0.000000948000000,0.000021500000000,0.000037300000000,-0.000004120000000,-0.000047200000000,0.000026400000000,0.000180000000000,-0.000826000000000,-0.000005920000000,0.000577000000000,0.013100000000000,0.015100000000000,
19100.000000000000000,-0.000024900000000,-0.000024700000000,-0.000026300000000,-0.000000011100000,0.000000936000000,0.000021600000000,0.000037400000000,-0.000004010000000,-0.000047200000000,0.000025400000000,0.000179000000000,-0.000824000000000,-0.000006750000000,0.000569000000000,0.013100000000000,0.015200000000000,
19200.000000000000000,-0.000024600000000,-0.000024300000000,-0.000025900000000,-0.000000010000000,0.000000937000000,0.000021600000000,0.000037500000000,-0.000003610000000,-0.000046900000000,0.000022000000000,0.000177000000000,-0.000809000000000,-0.000006080000000,0.000570000000000,0.013100000000000,0.015200000000000,
19300.000000000000000,-0.000024400000000,-0.000024200000000,-0.000025800000000,-0.000000010700000,0.000000881000000,0.000021700000000,0.000037600000000,-0.000003400000000,-0.000046800000000,0.000020700000000,0.000175000000000,-0.000803000000000,-0.000006480000000,0.000536000000000,0.013200000000000,0.015200000000000,
19400.000000000000000,-0.000024200000000,-0.000024000000000,-0.000025600000000,-0.000000011000000,0.000000833000000,0.000021800000000,0.000037700000000,-0.000003110000000,-0.000046700000000,0.000018800000000,0.000173000000000,-0.000794000000000,-0.000006670000000,0.000506000000000,0.013200000000000,0.015300000000000,
19500.000000000000000,-0.000024200000000,-0.000024000000000,-0.000025600000000,-0.000000012500000,0.000000801000000,0.000021900000000,0.000038100000000,-0.000002940000000,-0.000046900000000,0.000018000000000,0.000173000000000,-0.000793000000000,-0.000007580000000,0.000487000000000,0.013300000000000,0.015400000000000,
19600.000000000000000,-0.000024600000000,-0.000024400000000,-0.000026000000000,-0.000000013900000,0.000000704000000,0.000022100000000,0.000038400000000,-0.000003130000000,-0.000047500000000,0.000019600000000,0.000175000000000,-0.000807000000000,-0.000008460000000,0.000428000000000,0.013500000000000,0.015600000000000,
19700.000000000000000,-0.000024700000000,-0.000024500000000,-0.000026100000000,-0.000000015200000,0.000000659000000,0.000022400000000,0.000038800000000,-0.000003040000000,-0.000047800000000,0.000018500000000,0.000175000000000,-0.000809000000000,-0.000009230000000,0.000401000000000,0.013600000000000,0.015700000000000,
19800.000000000000000,-0.000024500000000,-0.000024300000000,-0.000025900000000,-0.000000016400000,0.000000578000000,0.000022500000000,0.000039000000000,-0.000002700000000,-0.000047700000000,0.000017500000000,0.000173000000000,-0.000801000000000,-0.000009980000000,0.000351000000000,0.013700000000000,0.015800000000000,
19900.000000000000000,-0.000023800000000,-0.000023500000000,-0.000025000000000,-0.000000017100000,0.000000459000000,0.000022500000000,0.000039000000000,-0.000001890000000,-0.000046900000000,0.000012600000000,0.000167000000000,-0.000769000000000,-0.000010400000000,0.000279000000000,0.013700000000000,0.015800000000000,
20000.000000000000000,-0.000022900000000,-0.000022700000000,-0.000024200000000,-0.000000017400000,0.000000408000000,0.000022400000000,0.000038900000000,-0.000001090000000,-0.000046000000000,0.000007120000000,0.000160000000000,-0.000737000000000,-0.000010600000000,0.000248000000000,0.013700000000000,0.015800000000000,
20100.000000000000000,-0.000022600000000,-0.000022300000000,-0.000023800000000,-0.000000021300000,0.000000260000000,0.000022600000000,0.000039200000000,-0.000000499000000,-0.000045800000000,0.000005950000000,0.000157000000000,-0.000723000000000,-0.000012900000000,0.000158000000000,0.013800000000000,0.015900000000000,
20200.000000000000000,-0.000022900000000,-0.000022600000000,-0.000024100000000,-0.000000020100000,0.000000152000000,0.000022900000000,0.000039800000000,-0.000000560000000,-0.000046500000000,0.000006780000000,0.000159000000000,-0.000734000000000,-0.000012300000000,0.000092200000000,0.013900000000000,0.016100000000000,
20300.000000000000000,-0.000023300000000,-0.000023000000000,-0.000024500000000,-0.000000025600000,0.000000117000000,0.000023100000000,0.000040100000000,-0.000000766000000,-0.000047100000000,0.000007810000000,0.000160000000000,-0.000746000000000,-0.000015600000000,0.000070900000000,0.014100000000000,0.016300000000000,
20400.000000000000000,-0.000023200000000,-0.000023000000000,-0.000024500000000,-0.000000026000000,0.000000028100000,0.000023400000000,0.000040600000000,-0.000000455000000,-0.000047300000000,0.000006780000000,0.000159000000000,-0.000743000000000,-0.000015800000000,0.000017100000000,0.014200000000000,0.016400000000000,
20500.000000000000000,-0.000023200000000,-0.000022900000000,-0.000024400000000,-0.000000025800000,-0.000000072700000,0.000023300000000,0.000040400000000,-0.000000444000000,-0.000047100000000,0.000005280000000,0.000158000000000,-0.000738000000000,-0.000015700000000,-0.000044200000000,0.014200000000000,0.016400000000000,
20600.000000000000000,-0.000022000000000,-0.000021800000000,-0.000023200000000,-0.000000028200000,-0.000000201000000,0.000023600000000,0.000040800000000,0.000000949000000,-0.000046200000000,0.000000396000000,0.000149000000000,-0.000697000000000,-0.000017200000000,-0.000122000000000,0.014300000000000,0.016600000000000,
20700.000000000000000,-0.000021600000000,-0.000021300000000,-0.000022700000000,-0.000000027600000,-0.000000248000000,0.000023400000000,0.000040500000000,0.000001220000000,-0.000045500000000,-0.000004130000000,0.000146000000000,-0.000678000000000,-0.000016800000000,-0.000151000000000,0.014200000000000,0.016400000000000,
20800.000000000000000,-0.000021000000000,-0.000020800000000,-0.000022100000000,-0.000000029200000,-0.000000306000000,0.000023600000000,0.000040800000000,0.000001980000000,-0.000045100000000,-0.000007670000000,0.000142000000000,-0.000656000000000,-0.000017800000000,-0.000186000000000,0.014300000000000,0.016500000000000,
20900.000000000000000,-0.000021100000000,-0.000020900000000,-0.000022200000000,-0.000000031000000,-0.000000399000000,0.000023700000000,0.000041000000000,0.000002010000000,-0.000045300000000,-0.000007700000000,0.000142000000000,-0.000658000000000,-0.000018900000000,-0.000243000000000,0.014400000000000,0.016600000000000,
21000.000000000000000,-0.000021200000000,-0.000020900000000,-0.000022300000000,-0.000000031600000,-0.000000472000000,0.000023900000000,0.000041300000000,0.000002140000000,-0.000045600000000,-0.000008630000000,0.000142000000000,-0.000659000000000,-0.000019200000000,-0.000287000000000,0.014500000000000,0.016800000000000,
21100.000000000000000,-0.000021600000000,-0.000021300000000,-0.000022700000000,-0.000000033600000,-0.000000496000000,0.000024100000000,0.000041900000000,0.000002050000000,-0.000046300000000,-0.000006560000000,0.000144000000000,-0.000673000000000,-0.000020500000000,-0.000302000000000,0.014700000000000,0.017000000000000,
21200.000000000000000,-0.000022100000000,-0.000021900000000,-0.000023200000000,-0.000000032800000,-0.000000459000000,0.000024300000000,0.000042100000000,0.000001610000000,-0.000047000000000,-0.000005980000000,0.000148000000000,-0.000691000000000,-0.000019900000000,-0.000279000000000,0.014800000000000,0.017100000000000,
21300.000000000000000,-0.000022300000000,-0.000022000000000,-0.000023400000000,-0.000000033300000,-0.000000497000000,0.000024400000000,0.000042300000000,0.000001550000000,-0.000047300000000,-0.000006200000000,0.000149000000000,-0.000696000000000,-0.000020200000000,-0.000302000000000,0.014800000000000,0.017100000000000,
21400.000000000000000,-0.000022100000000,-0.000021900000000,-0.000023200000000,-0.000000033900000,-0.000000511000000,0.000024600000000,0.000042600000000,0.000001890000000,-0.000047200000000,-0.000008060000000,0.000148000000000,-0.000688000000000,-0.000020600000000,-0.000311000000000,0.014900000000000,0.017300000000000,
21500.000000000000000,-0.000021900000000,-0.000021600000000,-0.000023000000000,-0.000000033400000,-0.000000492000000,0.000024500000000,0.000042400000000,0.000002030000000,-0.000046900000000,-0.000011100000000,0.000146000000000,-0.000678000000000,-0.000020300000000,-0.000299000000000,0.014900000000000,0.017200000000000,
21600.000000000000000,-0.000021800000000,-0.000021600000000,-0.000022900000000,-0.000000033800000,-0.000000480000000,0.000024600000000,0.000042700000000,0.000002240000000,-0.000047000000000,-0.000011800000000,0.000146000000000,-0.000676000000000,-0.000020600000000,-0.000292000000000,0.015000000000000,0.017300000000000,
21700.000000000000000,-0.000021800000000,-0.000021600000000,-0.000022900000000,-0.000000032300000,-0.000000425000000,0.000024600000000,0.000042600000000,0.000002180000000,-0.000047000000000,-0.000013500000000,0.000147000000000,-0.000675000000000,-0.000019600000000,-0.000258000000000,0.014900000000000,0.017300000000000,
21800.000000000000000,-0.000022200000000,-0.000021900000000,-0.000023300000000,-0.000000031700000,-0.000000351000000,0.000024800000000,0.000042900000000,0.000002020000000,-0.000047500000000,-0.000012900000000,0.000149000000000,-0.000687000000000,-0.000019300000000,-0.000213000000000,0.015100000000000,0.017400000000000,
21900.000000000000000,-0.000023000000000,-0.000022700000000,-0.000024100000000,-0.000000030800000,-0.000000294000000,0.000024900000000,0.000043100000000,0.000001340000000,-0.000048500000000,-0.000010400000000,0.000155000000000,-0.000715000000000,-0.000018700000000,-0.000179000000000,0.015100000000000,0.017500000000000,
22000.000000000000000,-0.000023900000000,-0.000023600000000,-0.000025100000000,-0.000000029000000,-0.000000180000000,0.000025100000000,0.000043400000000,0.000000618000000,-0.000049500000000,-0.000008130000000,0.000162000000000,-0.000746000000000,-0.000017600000000,-0.000109000000000,0.015200000000000,0.017600000000000,
22100.000000000000000,-0.000024600000000,-0.000024300000000,-0.000025900000000,-0.000000028600000,-0.000000062800000,0.000025200000000,0.000043800000000,0.000000014800000,-0.000050500000000,-0.000004630000000,0.000168000000000,-0.000774000000000,-0.000017400000000,-0.000038200000000,0.015400000000000,0.017700000000000,
22200.000000000000000,-0.000025300000000,-0.000025000000000,-0.000026600000000,-0.000000026700000,0.000000021100000,0.000025300000000,0.000043900000000,-0.000000572000000,-0.000051300000000,-0.000003550000000,0.000174000000000,-0.000797000000000,-0.000016200000000,0.000012900000000,0.015400000000000,0.017800000000000,
22300.000000000000000,-0.000025500000000,-0.000025200000000,-0.000026800000000,-0.000000025100000,0.000000145000000,0.000025400000000,0.000044100000000,-0.000000754000000,-0.000051600000000,-0.000003720000000,0.000176000000000,-0.000806000000000,-0.000015300000000,0.000088400000000,0.015500000000000,0.017900000000000,
22400.000000000000000,-0.000025500000000,-0.000025200000000,-0.000026900000000,-0.000000023100000,0.000000241000000,0.000025400000000,0.000044100000000,-0.000000742000000,-0.000051700000000,-0.000005660000000,0.000177000000000,-0.000805000000000,-0.000014000000000,0.000146000000000,0.015500000000000,0.017900000000000,
22500.000000000000000,-0.000025900000000,-0.000025600000000,-0.000027200000000,-0.000000020700000,0.000000366000000,0.000025400000000,0.000044100000000,-0.000001130000000,-0.000052000000000,-0.000005600000000,0.000180000000000,-0.000818000000000,-0.000012600000000,0.000223000000000,0.015500000000000,0.017900000000000,
22600.000000000000000,-0.000026400000000,-0.000026100000000,-0.000027800000000,-0.000000019000000,0.000000518000000,0.000025500000000,0.000044200000000,-0.000001590000000,-0.000052600000000,-0.000004550000000,0.000185000000000,-0.000837000000000,-0.000011600000000,0.000315000000000,0.015500000000000,0.017900000000000,
22700.000000000000000,-0.000027100000000,-0.000026800000000,-0.000028500000000,-0.000000016900000,0.000000638000000,0.000025600000000,0.000044400000000,-0.000002200000000,-0.000053400000000,-0.000002410000000,0.000191000000000,-0.000861000000000,-0.000010300000000,0.000388000000000,0.015600000000000,0.018000000000000,
22800.000000000000000,-0.000028000000000,-0.000027700000000,-0.000029500000000,-0.000000015100000,0.000000778000000,0.000025800000000,0.000044700000000,-0.000002940000000,-0.000054500000000,0.000000352000000,0.000198000000000,-0.000894000000000,-0.000009160000000,0.000473000000000,0.015700000000000,0.018100000000000,
22900.000000000000000,-0.000028900000000,-0.000028600000000,-0.000030500000000,-0.000000013200000,0.000000922000000,0.000025900000000,0.000044900000000,-0.000003770000000,-0.000055600000000,0.000003330000000,0.000206000000000,-0.000928000000000,-0.000008020000000,0.000561000000000,0.015800000000000,0.018200000000000,
23000.000000000000000,-0.000029700000000,-0.000029300000000,-0.000031300000000,-0.000000011700000,0.000000979000000,0.000026100000000,0.000045200000000,-0.000004360000000,-0.000056600000000,0.000005460000000,0.000212000000000,-0.000954000000000,-0.000007130000000,0.000595000000000,0.015900000000000,0.018300000000000,
23100.000000000000000,-0.000030000000000,-0.000029600000000,-0.000031600000000,-0.000000010600000,0.000001080000000,0.000026200000000,0.000045400000000,-0.000004560000000,-0.000057000000000,0.000005660000000,0.000215000000000,-0.000965000000000,-0.000006470000000,0.000658000000000,0.015900000000000,0.018400000000000,
23200.000000000000000,-0.000030300000000,-0.000029900000000,-0.000031900000000,-0.000000009460000,0.000001180000000,0.000026200000000,0.000045500000000,-0.000004780000000,-0.000057400000000,0.000005540000000,0.000218000000000,-0.000975000000000,-0.000005750000000,0.000716000000000,0.016000000000000,0.018500000000000,
23300.000000000000000,-0.000030300000000,-0.000029900000000,-0.000031900000000,-0.000000008230000,0.000001220000000,0.000026300000000,0.000045600000000,-0.000004770000000,-0.000057400000000,0.000003960000000,0.000218000000000,-0.000974000000000,-0.000005000000000,0.000745000000000,0.016000000000000,0.018500000000000,
23400.000000000000000,-0.000030400000000,-0.000030100000000,-0.000032100000000,-0.000000006850000,0.000001290000000,0.000026300000000,0.000045700000000,-0.000004860000000,-0.000057600000000,0.000003450000000,0.000220000000000,-0.000979000000000,-0.000004170000000,0.000787000000000,0.016000000000000,0.018500000000000,
23500.000000000000000,-0.000030500000000,-0.000030200000000,-0.000032100000000,-0.000000005990000,0.000001340000000,0.000026400000000,0.000045800000000,-0.000004890000000,-0.000057800000000,0.000001970000000,0.000221000000000,-0.000981000000000,-0.000003650000000,0.000813000000000,0.016000000000000,0.018600000000000,
23600.000000000000000,-0.000030800000000,-0.000030500000000,-0.000032500000000,-0.000000006140000,0.000001340000000,0.000026500000000,0.000046100000000,-0.000005070000000,-0.000058300000000,0.000002710000000,0.000223000000000,-0.000992000000000,-0.000003740000000,0.000816000000000,0.016100000000000,0.018700000000000,
23700.000000000000000,-0.000031100000000,-0.000030800000000,-0.000032800000000,-0.000000006590000,0.000001350000000,0.000026700000000,0.000046300000000,-0.000005210000000,-0.000058700000000,0.000003060000000,0.000225000000000,-0.001000000000000,-0.000004010000000,0.000818000000000,0.016200000000000,0.018800000000000,
23800.000000000000000,-0.000031500000000,-0.000031100000000,-0.000033100000000,-0.000000007580000,0.000001320000000,0.000026900000000,0.000046600000000,-0.000005380000000,-0.000059200000000,0.000004190000000,0.000227000000000,-0.001010000000000,-0.000004610000000,0.000806000000000,0.016300000000000,0.018900000000000,
23900.000000000000000,-0.000031600000000,-0.000031200000000,-0.000033300000000,-0.000000008680000,0.000001270000000,0.000027100000000,0.000047000000000,-0.000005340000000,-0.000059600000000,0.000003910000000,0.000228000000000,-0.001020000000000,-0.000005280000000,0.000772000000000,0.016500000000000,0.019000000000000,
24000.000000000000000,-0.000031400000000,-0.000031100000000,-0.000033100000000,-0.000000009630000,0.000001200000000,0.000027200000000,0.000047200000000,-0.000005050000000,-0.000059500000000,0.000001890000000,0.000226000000000,-0.001010000000000,-0.000005860000000,0.000733000000000,0.016500000000000,0.019100000000000,
24100.000000000000000,-0.000031000000000,-0.000030600000000,-0.000032600000000,-0.000000011000000,0.000001120000000,0.000027300000000,0.000047300000000,-0.000004480000000,-0.000059100000000,-0.000001400000000,0.000222000000000,-0.000990000000000,-0.000006680000000,0.000684000000000,0.016600000000000,0.019200000000000,
24200.000000000000000,-0.000030400000000,-0.000030000000000,-0.000032000000000,-0.000000012600000,0.000001010000000,0.000027300000000,0.000047400000000,-0.000003850000000,-0.000058500000000,-0.000005630000000,0.000217000000000,-0.000966000000000,-0.000007640000000,0.000615000000000,0.016600000000000,0.019200000000000,
24300.000000000000000,-0.000030000000000,-0.000029600000000,-0.000031500000000,-0.000000015300000,0.000000903000000,0.000027400000000,0.000047600000000,-0.000003290000000,-0.000058200000000,-0.000008000000000,0.000213000000000,-0.000949000000000,-0.000009320000000,0.000549000000000,0.016700000000000,0.019300000000000,
24400.000000000000000,-0.000029400000000,-0.000029100000000,-0.000030900000000,-0.000000017500000,0.000000771000000,0.000027500000000,0.000047700000000,-0.000002670000000,-0.000057700000000,-0.000011600000000,0.000208000000000,-0.000927000000000,-0.000010600000000,0.000469000000000,0.016700000000000,0.019300000000000,
24500.000000000000000,-0.000029200000000,-0.000028800000000,-0.000030700000000,-0.000000019900000,0.000000633000000,0.000027700000000,0.000048000000000,-0.000002210000000,-0.000057700000000,-0.000013500000000,0.000205000000000,-0.000915000000000,-0.000012100000000,0.000385000000000,0.016800000000000,0.019500000000000,
24600.000000000000000,-0.000028900000000,-0.000028600000000,-0.000030400000000,-0.000000022600000,0.000000491000000,0.000027900000000,0.000048400000000,-0.000001730000000,-0.000057500000000,-0.000016200000000,0.000202000000000,-0.000902000000000,-0.000013700000000,0.000299000000000,0.017000000000000,0.019600000000000,
24700.000000000000000,-0.000028700000000,-0.000028400000000,-0.000030200000000,-0.000000025900000,0.000000304000000,0.000028100000000,0.000048700000000,-0.000001320000000,-0.000057600000000,-0.000017300000000,0.000199000000000,-0.000894000000000,-0.000015800000000,0.000185000000000,0.017100000000000,0.019800000000000,
24800.000000000000000,-0.000028300000000,-0.000027900000000,-0.000029700000000,-0.000000029600000,0.000000144000000,0.000028300000000,0.000049000000000,-0.000000655000000,-0.000057300000000,-0.000020200000000,0.000194000000000,-0.000875000000000,-0.000018000000000,0.000087800000000,0.017200000000000,0.019900000000000,
24900.000000000000000,-0.000027800000000,-0.000027400000000,-0.000029200000000,-0.000000032400000,0.000000019100000,0.000028400000000,0.000049300000000,-0.000000032800000,-0.000056900000000,-0.000023100000000,0.000190000000000,-0.000856000000000,-0.000019700000000,0.000011600000000,0.017300000000000,0.020000000000000,
25000.000000000000000,-0.000027300000000,-0.000026900000000,-0.000028600000000,-0.000000035100000,-0.000000143000000,0.000028500000000,0.000049400000000,0.000000580000000,-0.000056400000000,-0.000027100000000,0.000185000000000,-0.000834000000000,-0.000021300000000,-0.000086700000000,0.017300000000000,0.020000000000000,
25100.000000000000000,-0.000026600000000,-0.000026300000000,-0.000027900000000,-0.000000037100000,-0.000000274000000,0.000028600000000,0.000049600000000,0.000001380000000,-0.000055900000000,-0.000031100000000,0.000180000000000,-0.000808000000000,-0.000022500000000,-0.000167000000000,0.017400000000000,0.020100000000000,
25200.000000000000000,-0.000026100000000,-0.000025700000000,-0.000027300000000,-0.000000038900000,-0.000000392000000,0.000028700000000,0.000049700000000,0.000001980000000,-0.000055400000000,-0.000035500000000,0.000175000000000,-0.000786000000000,-0.000023600000000,-0.000238000000000,0.017400000000000,0.020100000000000,
25300.000000000000000,-0.000025700000000,-0.000025400000000,-0.000026900000000,-0.000000041500000,-0.000000513000000,0.000028800000000,0.000049900000000,0.000002500000000,-0.000055100000000,-0.000037300000000,0.000172000000000,-0.000771000000000,-0.000025200000000,-0.000312000000000,0.017500000000000,0.020200000000000,
25400.000000000000000,-0.000025500000000,-0.000025200000000,-0.000026700000000,-0.000000043900000,-0.000000597000000,0.000028900000000,0.000050200000000,0.000002860000000,-0.000055100000000,-0.000039500000000,0.000170000000000,-0.000762000000000,-0.000026700000000,-0.000363000000000,0.017600000000000,0.020300000000000,
25500.000000000000000,-0.000025600000000,-0.000025200000000,-0.000026700000000,-0.000000045900000,-0.000000665000000,0.000029100000000,0.000050500000000,0.000003010000000,-0.000055300000000,-0.000039700000000,0.000170000000000,-0.000763000000000,-0.000027900000000,-0.000404000000000,0.017700000000000,0.020500000000000,
25600.000000000000000,-0.000025700000000,-0.000025400000000,-0.000026900000000,-0.000000047000000,-0.000000728000000,0.000029300000000,0.000050800000000,0.000003000000000,-0.000055600000000,-0.000040900000000,0.000171000000000,-0.000767000000000,-0.000028600000000,-0.000443000000000,0.017800000000000,0.020600000000000,
25700.000000000000000,-0.000025900000000,-0.000025600000000,-0.000027200000000,-0.000000047400000,-0.000000744000000,0.000029500000000,0.000051100000000,0.000002940000000,-0.000056000000000,-0.000040500000000,0.000172000000000,-0.000774000000000,-0.000028800000000,-0.000452000000000,0.017900000000000,0.020700000000000,
25800.000000000000000,-0.000026000000000,-0.000025600000000,-0.000027200000000,-0.000000047400000,-0.000000719000000,0.000029600000000,0.000051200000000,0.000003000000000,-0.000056200000000,-0.000042400000000,0.000172000000000,-0.000773000000000,-0.000028800000000,-0.000437000000000,0.018000000000000,0.020800000000000,
25900.000000000000000,-0.000026200000000,-0.000025800000000,-0.000027400000000,-0.000000046600000,-0.000000694000000,0.000029700000000,0.000051400000000,0.000002900000000,-0.000056400000000,-0.000042600000000,0.000174000000000,-0.000779000000000,-0.000028400000000,-0.000422000000000,0.018000000000000,0.020800000000000,
26000.000000000000000,-0.000026200000000,-0.000025900000000,-0.000027400000000,-0.000000045600000,-0.000000624000000,0.000029700000000,0.000051500000000,0.000002880000000,-0.000056500000000,-0.000044200000000,0.000175000000000,-0.000780000000000,-0.000027700000000,-0.000380000000000,0.018100000000000,0.020900000000000,
26100.000000000000000,-0.000026500000000,-0.000026200000000,-0.000027700000000,-0.000000043900000,-0.000000552000000,0.000029800000000,0.000051600000000,0.000002640000000,-0.000056900000000,-0.000044100000000,0.000177000000000,-0.000790000000000,-0.000026700000000,-0.000336000000000,0.018100000000000,0.020900000000000,
26200.000000000000000,-0.000027000000000,-0.000026600000000,-0.000028200000000,-0.000000041600000,-0.000000440000000,0.000029800000000,0.000051700000000,0.000002240000000,-0.000057500000000,-0.000044200000000,0.000181000000000,-0.000805000000000,-0.000025300000000,-0.000268000000000,0.018100000000000,0.021000000000000,
26300.000000000000000,-0.000027700000000,-0.000027300000000,-0.000029000000000,-0.000000039100000,-0.000000304000000,0.000029900000000,0.000051900000000,0.000001640000000,-0.000058300000000,-0.000042400000000,0.000187000000000,-0.000829000000000,-0.000023800000000,-0.000185000000000,0.018200000000000,0.021000000000000,
26400.000000000000000,-0.000028500000000,-0.000028200000000,-0.000029900000000,-0.000000036900000,-0.000000163000000,0.000030100000000,0.000052100000000,0.000000886000000,-0.000059300000000,-0.000040100000000,0.000194000000000,-0.000861000000000,-0.000022400000000,-0.000099000000000,0.018300000000000,0.021100000000000,
26500.000000000000000,-0.000029400000000,-0.000029100000000,-0.000030900000000,-0.000000033800000,0.000000010300000,0.000030200000000,0.000052300000000,0.000000047300000,-0.000060300000000,-0.000037100000000,0.000201000000000,-0.000894000000000,-0.000020600000000,0.000006280000000,0.018400000000000,0.021200000000000,
26600.000000000000000,-0.000030400000000,-0.000030000000000,-0.000031900000000,-0.000000030800000,0.000000204000000,0.000030300000000,0.000052600000000,-0.000000845000000,-0.000061500000000,-0.000034400000000,0.000210000000000,-0.000930000000000,-0.000018700000000,0.000124000000000,0.018400000000000,0.021300000000000,
26700.000000000000000,-0.000031100000000,-0.000030700000000,-0.000032700000000,-0.000000027000000,0.000000381000000,0.000030400000000,0.000052700000000,-0.000001470000000,-0.000062300000000,-0.000032600000000,0.000216000000000,-0.000955000000000,-0.000016400000000,0.000232000000000,0.018500000000000,0.021400000000000,
26800.000000000000000,-0.000032000000000,-0.000031500000000,-0.000033500000000,-0.000000023200000,0.000000567000000,0.000030500000000,0.000052900000000,-0.000002220000000,-0.000063300000000,-0.000030900000000,0.000223000000000,-0.000985000000000,-0.000014100000000,0.000345000000000,0.018600000000000,0.021400000000000,
26900.000000000000000,-0.000032500000000,-0.000032100000000,-0.000034100000000,-0.000000019200000,0.000000773000000,0.000030500000000,0.000052900000000,-0.000002780000000,-0.000063900000000,-0.000030200000000,0.000229000000000,-0.001000000000000,-0.000011700000000,0.000470000000000,0.018600000000000,0.021500000000000,
27000.000000000000000,-0.000033200000000,-0.000032700000000,-0.000034800000000,-0.000000015900000,0.000000943000000,0.000030500000000,0.000052900000000,-0.000003430000000,-0.000064500000000,-0.000029000000000,0.000235000000000,-0.001030000000000,-0.000009670000000,0.000574000000000,0.018600000000000,0.021500000000000,
27100.000000000000000,-0.000033800000000,-0.000033400000000,-0.000035500000000,-0.000000013000000,0.000001110000000,0.000030600000000,0.000053000000000,-0.000004040000000,-0.000065200000000,-0.000027600000000,0.000241000000000,-0.001050000000000,-0.000007890000000,0.000673000000000,0.018600000000000,0.021500000000000,
27200.000000000000000,-0.000034500000000,-0.000034100000000,-0.000036300000000,-0.000000010200000,0.000001270000000,0.000030700000000,0.000053200000000,-0.000004700000000,-0.000066100000000,-0.000025800000000,0.000248000000000,-0.001080000000000,-0.000006190000000,0.000772000000000,0.018700000000000,0.021600000000000,
27300.000000000000000,-0.000035300000000,-0.000034900000000,-0.000037100000000,-0.000000007180000,0.000001390000000,0.000030800000000,0.000053500000000,-0.000005340000000,-0.000067100000000,-0.000023900000000,0.000254000000000,-0.001110000000000,-0.000004370000000,0.000843000000000,0.018800000000000,0.021700000000000,
27400.000000000000000,-0.000036000000000,-0.000035500000000,-0.000037800000000,-0.000000004880000,0.000001510000000,0.000031000000000,0.000053800000000,-0.000005880000000,-0.000067900000000,-0.000022300000000,0.000260000000000,-0.001130000000000,-0.000002970000000,0.000916000000000,0.018800000000000,0.021800000000000,
27500.000000000000000,-0.000036600000000,-0.000036100000000,-0.000038500000000,-0.000000003570000,0.000001600000000,0.000031100000000,0.000054000000000,-0.000006380000000,-0.000068700000000,-0.000020800000000,0.000265000000000,-0.001150000000000,-0.000002170000000,0.000972000000000,0.018900000000000,0.021900000000000,
27600.000000000000000,-0.000036800000000,-0.000036400000000,-0.000038700000000,-0.000000002840000,0.000001650000000,0.000031200000000,0.000054200000000,-0.000006510000000,-0.000069000000000,-0.000021300000000,0.000267000000000,-0.001160000000000,-0.000001730000000,0.001000000000000,0.019000000000000,0.022000000000000,
27700.000000000000000,-0.000037000000000,-0.000036500000000,-0.000038800000000,-0.000000002360000,0.000001670000000,0.000031300000000,0.000054300000000,-0.000006550000000,-0.000069200000000,-0.000022400000000,0.000268000000000,-0.001160000000000,-0.000001440000000,0.001010000000000,0.019000000000000,0.022000000000000,
27800.000000000000000,-0.000036900000000,-0.000036400000000,-0.000038700000000,-0.000000002490000,0.000001650000000,0.000031400000000,0.000054400000000,-0.000006360000000,-0.000069200000000,-0.000024200000000,0.000267000000000,-0.001160000000000,-0.000001510000000,0.001010000000000,0.019100000000000,0.022100000000000,
27900.000000000000000,-0.000036600000000,-0.000036100000000,-0.000038500000000,-0.000000003650000,0.000001600000000,0.000031400000000,0.000054600000000,-0.000006050000000,-0.000069100000000,-0.000026700000000,0.000265000000000,-0.001150000000000,-0.000002220000000,0.000970000000000,0.019100000000000,0.022100000000000,
28000.000000000000000,-0.000036300000000,-0.000035900000000,-0.000038200000000,-0.000000005720000,0.000001520000000,0.000031600000000,0.000054800000000,-0.000005630000000,-0.000068900000000,-0.000028900000000,0.000262000000000,-0.001130000000000,-0.000003480000000,0.000924000000000,0.019200000000000,0.022200000000000,
28100.000000000000000,-0.000036100000000,-0.000035600000000,-0.000037900000000,-0.000000008570000,0.000001400000000,0.000031700000000,0.000055000000000,-0.000005240000000,-0.000068700000000,-0.000031100000000,0.000259000000000,-0.001120000000000,-0.000005210000000,0.000851000000000,0.019300000000000,0.022300000000000,
28200.000000000000000,-0.000035900000000,-0.000035400000000,-0.000037700000000,-0.000000011300000,0.000001260000000,0.000031900000000,0.000055300000000,-0.000004860000000,-0.000068700000000,-0.000032800000000,0.000257000000000,-0.001110000000000,-0.000006880000000,0.000769000000000,0.019400000000000,0.022400000000000,
28300.000000000000000,-0.000035500000000,-0.000035000000000,-0.000037200000000,-0.000000014600000,0.000001120000000,0.000032000000000,0.000055600000000,-0.000004270000000,-0.000068400000000,-0.000036000000000,0.000252000000000,-0.001100000000000,-0.000008890000000,0.000679000000000,0.019500000000000,0.022500000000000,
28400.000000000000000,-0.000035000000000,-0.000034600000000,-0.000036800000000,-0.000000018800000,0.000000915000000,0.000032200000000,0.000055900000000,-0.000003630000000,-0.000068200000000,-0.000039000000000,0.000247000000000,-0.001080000000000,-0.000011400000000,0.000556000000000,0.019600000000000,0.022700000000000,
28500.000000000000000,-0.000034300000000,-0.000033900000000,-0.000036000000000,-0.000000023300000,0.000000713000000,0.000032400000000,0.000056100000000,-0.000002770000000,-0.000067600000000,-0.000043500000000,0.000240000000000,-0.001050000000000,-0.000014100000000,0.000433000000000,0.019700000000000,0.022800000000000,
28600.000000000000000,-0.000033600000000,-0.000033100000000,-0.000035200000000,-0.000000027700000,0.000000509000000,0.000032500000000,0.000056400000000,-0.000001850000000,-0.000067000000000,-0.000047700000000,0.000234000000000,-0.001020000000000,-0.000016800000000,0.000310000000000,0.019800000000000,0.022900000000000,
28700.000000000000000,-0.000032700000000,-0.000032200000000,-0.000034200000000,-0.000000032500000,0.000000283000000,0.000032700000000,0.000056600000000,-0.000000799000000,-0.000066100000000,-0.000053000000000,0.000225000000000,-0.000982000000000,-0.000019800000000,0.000172000000000,0.019900000000000,0.022900000000000,
28800.000000000000000,-0.000031800000000,-0.000031400000000,-0.000033300000000,-0.000000037300000,0.000000052100000,0.000032800000000,0.000056800000000,0.000000197000000,-0.000065300000000,-0.000058000000000,0.000218000000000,-0.000948000000000,-0.000022700000000,0.000031700000000,0.019900000000000,0.023000000000000,
28900.000000000000000,-0.000031100000000,-0.000030600000000,-0.000032500000000,-0.000000042100000,-0.000000142000000,0.000032900000000,0.000057000000000,0.000001110000000,-0.000064700000000,-0.000062800000000,0.000211000000000,-0.000917000000000,-0.000025600000000,-0.000086600000000,0.020000000000000,0.023100000000000,
29000.000000000000000,-0.000030500000000,-0.000030000000000,-0.000031800000000,-0.000000046300000,-0.000000343000000,0.000033000000000,0.000057200000000,0.000001870000000,-0.000064200000000,-0.000066800000000,0.000205000000000,-0.000892000000000,-0.000028200000000,-0.000209000000000,0.020100000000000,0.023200000000000,
29100.000000000000000,-0.000030100000000,-0.000029700000000,-0.000031500000000,-0.000000050500000,-0.000000519000000,0.000033200000000,0.000057600000000,0.000002410000000,-0.000064000000000,-0.000069000000000,0.000202000000000,-0.000879000000000,-0.000030700000000,-0.000315000000000,0.020200000000000,0.023300000000000,
29200.000000000000000,-0.000029700000000,-0.000029300000000,-0.000031000000000,-0.000000054300000,-0.000000654000000,0.000033400000000,0.000057900000000,0.000003030000000,-0.000063800000000,-0.000071700000000,0.000198000000000,-0.000862000000000,-0.000033000000000,-0.000398000000000,0.020300000000000,0.023500000000000,
29300.000000000000000,-0.000029600000000,-0.000029100000000,-0.000030900000000,-0.000000057400000,-0.000000776000000,0.000033600000000,0.000058200000000,0.000003390000000,-0.000063800000000,-0.000073700000000,0.000196000000000,-0.000854000000000,-0.000034900000000,-0.000472000000000,0.020400000000000,0.023600000000000,
29400.000000000000000,-0.000029400000000,-0.000028900000000,-0.000030700000000,-0.000000059200000,-0.000000858000000,0.000033700000000,0.000058400000000,0.000003690000000,-0.000063700000000,-0.000076300000000,0.000195000000000,-0.000845000000000,-0.000036000000000,-0.000522000000000,0.020500000000000,0.023700000000000,
29500.000000000000000,-0.000029300000000,-0.000028800000000,-0.000030500000000,-0.000000060200000,-0.000000896000000,0.000033800000000,0.000058600000000,0.000003910000000,-0.000063700000000,-0.000078100000000,0.000194000000000,-0.000839000000000,-0.000036600000000,-0.000545000000000,0.020600000000000,0.023800000000000,
29600.000000000000000,-0.000029200000000,-0.000028800000000,-0.000030400000000,-0.000000060400000,-0.000000905000000,0.000033900000000,0.000058700000000,0.000004070000000,-0.000063700000000,-0.000080400000000,0.000193000000000,-0.000834000000000,-0.000036700000000,-0.000550000000000,0.020600000000000,0.023800000000000,
29700.000000000000000,-0.000029300000000,-0.000028900000000,-0.000030600000000,-0.000000059800000,-0.000000881000000,0.000034000000000,0.000058900000000,0.000004060000000,-0.000063900000000,-0.000081400000000,0.000194000000000,-0.000837000000000,-0.000036300000000,-0.000536000000000,0.020700000000000,0.023900000000000,
29800.000000000000000,-0.000029600000000,-0.000029200000000,-0.000030900000000,-0.000000058400000,-0.000000801000000,0.000034100000000,0.000059000000000,0.000003800000000,-0.000064300000000,-0.000081500000000,0.000197000000000,-0.000848000000000,-0.000035500000000,-0.000487000000000,0.020700000000000,0.023900000000000,
29900.000000000000000,-0.000030200000000,-0.000029700000000,-0.000031500000000,-0.000000055600000,-0.000000690000000,0.000034200000000,0.000059200000000,0.000003340000000,-0.000065000000000,-0.000080900000000,0.000201000000000,-0.000867000000000,-0.000033800000000,-0.000420000000000,0.020800000000000,0.024000000000000,
30000.000000000000000,-0.000031000000000,-0.000030500000000,-0.000032400000000,-0.000000052100000,-0.000000521000000,0.000034300000000,0.000059400000000,0.000002620000000,-0.000066000000000,-0.000078900000000,0.000208000000000,-0.000895000000000,-0.000031700000000,-0.000317000000000,0.020900000000000,0.024100000000000,
30100.000000000000000,-0.000031900000000,-0.000031400000000,-0.000033300000000,-0.000000048300000,-0.000000345000000,0.000034400000000,0.000059600000000,0.000001820000000,-0.000067000000000,-0.000076300000000,0.000215000000000,-0.000928000000000,-0.000029400000000,-0.000210000000000,0.020900000000000,0.024200000000000,
30200.000000000000000,-0.000033000000000,-0.000032500000000,-0.000034400000000,-0.000000043800000,-0.000000130000000,0.000034500000000,0.000059800000000,0.000000829000000,-0.000068200000000,-0.000073000000000,0.000224000000000,-0.000966000000000,-0.000026600000000,-0.000078900000000,0.021000000000000,0.024300000000000,
30300.000000000000000,-0.000034000000000,-0.000033500000000,-0.000035500000000,-0.000000038800000,0.000000113000000,0.000034600000000,0.000060000000000,-0.000000133000000,-0.000069400000000,-0.000070000000000,0.000233000000000,-0.001000000000000,-0.000023600000000,0.000068700000000,0.021100000000000,0.024300000000000,
30400.000000000000000,-0.000034900000000,-0.000034400000000,-0.000036500000000,-0.000000033300000,0.000000349000000,0.000034700000000,0.000060200000000,-0.000001010000000,-0.000070500000000,-0.000067600000000,0.000241000000000,-0.001040000000000,-0.000020200000000,0.000212000000000,0.021100000000000,0.024400000000000,
30500.000000000000000,-0.000035900000000,-0.000035400000000,-0.000037500000000,-0.000000027400000,0.000000588000000,0.000034800000000,0.000060400000000,-0.000001860000000,-0.000071600000000,-0.000065000000000,0.000250000000000,-0.001070000000000,-0.000016700000000,0.000357000000000,0.021200000000000,0.024500000000000,
30600.000000000000000,-0.000036700000000,-0.000036200000000,-0.000038500000000,-0.000000021700000,0.000000846000000,0.000034900000000,0.000060400000000,-0.000002710000000,-0.000072500000000,-0.000063000000000,0.000258000000000,-0.001100000000000,-0.000013200000000,0.000515000000000,0.021200000000000,0.024500000000000,
30700.000000000000000,-0.000037700000000,-0.000037200000000,-0.000039500000000,-0.000000016200000,0.000001080000000,0.000034900000000,0.000060600000000,-0.000003640000000,-0.000073600000000,-0.000060100000000,0.000267000000000,-0.001140000000000,-0.000009850000000,0.000658000000000,0.021200000000000,0.024600000000000,
30800.000000000000000,-0.000038600000000,-0.000038000000000,-0.000040400000000,-0.000000011300000,0.000001300000000,0.000035000000000,0.000060700000000,-0.000004450000000,-0.000074500000000,-0.000057900000000,0.000275000000000,-0.001170000000000,-0.000006900000000,0.000790000000000,0.021300000000000,0.024600000000000,
30900.000000000000000,-0.000039400000000,-0.000038900000000,-0.000041300000000,-0.000000006860000,0.000001500000000,0.000035100000000,0.000061000000000,-0.000005170000000,-0.000075500000000,-0.000055400000000,0.000283000000000,-0.001200000000000,-0.000004170000000,0.000914000000000,0.021400000000000,0.024700000000000,
31000.000000000000000,-0.000040100000000,-0.000039600000000,-0.000042100000000,-0.000000002950000,0.000001650000000,0.000035300000000,0.000061300000000,-0.000005750000000,-0.000076500000000,-0.000053700000000,0.000290000000000,-0.001230000000000,-0.000001790000000,0.001010000000000,0.021500000000000,0.024800000000000,
31100.000000000000000,-0.000040700000000,-0.000040200000000,-0.000042700000000,-0.000000000127000,0.000001770000000,0.000035400000000,0.000061500000000,-0.000006210000000,-0.000077200000000,-0.000052300000000,0.000295000000000,-0.001250000000000,-0.000000077100000,0.001080000000000,0.021500000000000,0.024900000000000,
31200.000000000000000,-0.000041200000000,-0.000040600000000,-0.000043200000000,0.000000001500000,0.000001850000000,0.000035600000000,0.000061800000000,-0.000006540000000,-0.000077900000000,-0.000051300000000,0.000299000000000,-0.001270000000000,0.000000915000000,0.001130000000000,0.021600000000000,0.025000000000000,
31300.000000000000000,-0.000041400000000,-0.000040800000000,-0.000043400000000,0.000000002210000,0.000001880000000,0.000035700000000,0.000062000000000,-0.000006620000000,-0.000078200000000,-0.000051400000000,0.000301000000000,-0.001280000000000,0.000001350000000,0.001150000000000,0.021700000000000,0.025200000000000,
31400.000000000000000,-0.000041500000000,-0.000040900000000,-0.000043500000000,0.000000001630000,0.000001860000000,0.000035900000000,0.000062300000000,-0.000006520000000,-0.000078500000000,-0.000051800000000,0.000301000000000,-0.001280000000000,0.000000992000000,0.001130000000000,0.021800000000000,0.025300000000000,
31500.000000000000000,-0.000041300000000,-0.000040700000000,-0.000043300000000,0.000000000314000,0.000001810000000,0.000036100000000,0.000062600000000,-0.000006150000000,-0.000078400000000,-0.000054000000000,0.000299000000000,-0.001270000000000,0.000000191000000,0.001100000000000,0.021900000000000,0.025400000000000,
31600.000000000000000,-0.000040900000000,-0.000040300000000,-0.000042900000000,-0.000000001760000,0.000001710000000,0.000036200000000,0.000062900000000,-0.000005620000000,-0.000078200000000,-0.000056700000000,0.000295000000000,-0.001250000000000,-0.000001070000000,0.001040000000000,0.022000000000000,0.025500000000000,
31700.000000000000000,-0.000040400000000,-0.000039800000000,-0.000042300000000,-0.000000005470000,0.000001560000000,0.000036400000000,0.000063200000000,-0.000004910000000,-0.000077800000000,-0.000059800000000,0.000290000000000,-0.001230000000000,-0.000003330000000,0.000949000000000,0.022100000000000,0.025600000000000,
31800.000000000000000,-0.000039700000000,-0.000039100000000,-0.000041600000000,-0.000000010300000,0.000001370000000,0.000036600000000,0.000063500000000,-0.000004020000000,-0.000077300000000,-0.000063400000000,0.000283000000000,-0.001200000000000,-0.000006260000000,0.000831000000000,0.022300000000000,0.025700000000000,
31900.000000000000000,-0.000039000000000,-0.000038400000000,-0.000040800000000,-0.000000016000000,0.000001150000000,0.000036800000000,0.000063800000000,-0.000003080000000,-0.000076700000000,-0.000067200000000,0.000276000000000,-0.001170000000000,-0.000009700000000,0.000700000000000,0.022400000000000,0.025900000000000,
32000.000000000000000,-0.000038100000000,-0.000037600000000,-0.000039900000000,-0.000000021900000,0.000000911000000,0.000037000000000,0.000064100000000,-0.000001990000000,-0.000076000000000,-0.000072100000000,0.000268000000000,-0.001140000000000,-0.000013300000000,0.000554000000000,0.022500000000000,0.026000000000000,
32100.000000000000000,-0.000037300000000,-0.000036800000000,-0.000039000000000,-0.000000028300000,0.000000655000000,0.000037200000000,0.000064500000000,-0.000000909000000,-0.000075400000000,-0.000076100000000,0.000260000000000,-0.001110000000000,-0.000017200000000,0.000399000000000,0.022600000000000,0.026200000000000,
32200.000000000000000,-0.000036500000000,-0.000035900000000,-0.000038100000000,-0.000000035200000,0.000000382000000,0.000037500000000,0.000064900000000,0.000000202000000,-0.000074800000000,-0.000080400000000,0.000252000000000,-0.001070000000000,-0.000021400000000,0.000233000000000,0.022800000000000,0.026300000000000,
32300.000000000000000,-0.000035600000000,-0.000035100000000,-0.000037200000000,-0.000000042300000,0.000000139000000,0.000037700000000,0.000065300000000,0.000001340000000,-0.000074100000000,-0.000084700000000,0.000244000000000,-0.001040000000000,-0.000025700000000,0.000084300000000,0.022900000000000,0.026500000000000,
32400.000000000000000,-0.000034800000000,-0.000034300000000,-0.000036300000000,-0.000000048900000,-0.000000110000000,0.000037900000000,0.000065700000000,0.000002360000000,-0.000073500000000,-0.000088700000000,0.000236000000000,-0.001010000000000,-0.000029700000000,-0.000066600000000,0.023100000000000,0.026600000000000,
32500.000000000000000,-0.000034000000000,-0.000033500000000,-0.000035500000000,-0.000000054900000,-0.000000342000000,0.000038100000000,0.000066100000000,0.000003390000000,-0.000072900000000,-0.000093100000000,0.000229000000000,-0.000977000000000,-0.000033400000000,-0.000208000000000,0.023200000000000,0.026800000000000,
32600.000000000000000,-0.000033300000000,-0.000032800000000,-0.000034700000000,-0.000000060200000,-0.000000529000000,0.000038400000000,0.000066500000000,0.000004360000000,-0.000072400000000,-0.000096600000000,0.000223000000000,-0.000950000000000,-0.000036600000000,-0.000322000000000,0.023300000000000,0.027000000000000,
32700.000000000000000,-0.000032700000000,-0.000032200000000,-0.000034100000000,-0.000000064700000,-0.000000685000000,0.000038600000000,0.000066900000000,0.000005220000000,-0.000072000000000,-0.000100000000000,0.000218000000000,-0.000925000000000,-0.000039300000000,-0.000417000000000,0.023500000000000,0.027100000000000,
32800.000000000000000,-0.000032300000000,-0.000031800000000,-0.000033600000000,-0.000000068300000,-0.000000810000000,0.000038800000000,0.000067200000000,0.000005810000000,-0.000071800000000,-0.000102000000000,0.000215000000000,-0.000910000000000,-0.000041500000000,-0.000493000000000,0.023600000000000,0.027200000000000,
32900.000000000000000,-0.000032100000000,-0.000031600000000,-0.000033400000000,-0.000000070300000,-0.000000876000000,0.000038900000000,0.000067500000000,0.000006200000000,-0.000071700000000,-0.000104000000000,0.000213000000000,-0.000901000000000,-0.000042800000000,-0.000533000000000,0.023700000000000,0.027400000000000,
33000.000000000000000,-0.000032100000000,-0.000031600000000,-0.000033400000000,-0.000000071200000,-0.000000890000000,0.000039100000000,0.000067800000000,0.000006390000000,-0.000071900000000,-0.000105000000000,0.000213000000000,-0.000900000000000,-0.000043300000000,-0.000542000000000,0.023800000000000,0.027500000000000,
33100.000000000000000,-0.000032300000000,-0.000031800000000,-0.000033700000000,-0.000000070600000,-0.000000869000000,0.000039300000000,0.000068100000000,0.000006340000000,-0.000072300000000,-0.000105000000000,0.000214000000000,-0.000908000000000,-0.000042900000000,-0.000529000000000,0.023900000000000,0.027600000000000,
33200.000000000000000,-0.000032700000000,-0.000032100000000,-0.000034000000000,-0.000000068800000,-0.000000783000000,0.000039500000000,0.000068500000000,0.000006180000000,-0.000072900000000,-0.000104000000000,0.000217000000000,-0.000920000000000,-0.000041800000000,-0.000476000000000,0.024000000000000,0.027800000000000,
33300.000000000000000,-0.000033300000000,-0.000032800000000,-0.000034700000000,-0.000000065200000,-0.000000650000000,0.000039700000000,0.000068800000000,0.000005720000000,-0.000073700000000,-0.000102000000000,0.000222000000000,-0.000942000000000,-0.000039700000000,-0.000395000000000,0.024100000000000,0.027900000000000,
33400.000000000000000,-0.000034000000000,-0.000033500000000,-0.000035500000000,-0.000000060600000,-0.000000477000000,0.000039900000000,0.000069100000000,0.000005120000000,-0.000074600000000,-0.000100000000000,0.000228000000000,-0.000969000000000,-0.000036800000000,-0.000290000000000,0.024200000000000,0.028000000000000,
33500.000000000000000,-0.000034900000000,-0.000034400000000,-0.000036400000000,-0.000000055000000,-0.000000267000000,0.000040000000000,0.000069400000000,0.000004380000000,-0.000075700000000,-0.000097300000000,0.000236000000000,-0.001000000000000,-0.000033500000000,-0.000162000000000,0.024300000000000,0.028100000000000,
33600.000000000000000,-0.000035900000000,-0.000035400000000,-0.000037500000000,-0.000000048600000,-0.000000028000000,0.000040200000000,0.000069600000000,0.000003500000000,-0.000076900000000,-0.000094000000000,0.000244000000000,-0.001040000000000,-0.000029600000000,-0.000017000000000,0.024400000000000,0.028200000000000,
33700.000000000000000,-0.000036900000000,-0.000036400000000,-0.000038500000000,-0.000000041500000,0.000000230000000,0.000040300000000,0.000069900000000,0.000002610000000,-0.000078100000000,-0.000090500000000,0.000253000000000,-0.001080000000000,-0.000025200000000,0.000140000000000,0.024500000000000,0.028300000000000,
33800.000000000000000,-0.000038000000000,-0.000037400000000,-0.000039700000000,-0.000000033900000,0.000000507000000,0.000040500000000,0.000070200000000,0.000001670000000,-0.000079400000000,-0.000086600000000,0.000263000000000,-0.001120000000000,-0.000020600000000,0.000308000000000,0.024600000000000,0.028500000000000,
33900.000000000000000,-0.000039100000000,-0.000038500000000,-0.000040800000000,-0.000000026100000,0.000000769000000,0.000040700000000,0.000070500000000,0.000000724000000,-0.000080600000000,-0.000083100000000,0.000273000000000,-0.001160000000000,-0.000015900000000,0.000468000000000,0.024700000000000,0.028600000000000,
34000.000000000000000,-0.000040100000000,-0.000039500000000,-0.000041900000000,-0.000000018700000,0.000001040000000,0.000040800000000,0.000070700000000,-0.000000217000000,-0.000081800000000,-0.000079500000000,0.000282000000000,-0.001200000000000,-0.000011400000000,0.000632000000000,0.024800000000000,0.028700000000000,
34100.000000000000000,-0.000041100000000,-0.000040500000000,-0.000043000000000,-0.000000011600000,0.000001290000000,0.000040900000000,0.000071000000000,-0.000001100000000,-0.000083000000000,-0.000076200000000,0.000292000000000,-0.001230000000000,-0.000007070000000,0.000782000000000,0.024900000000000,0.028800000000000,
34200.000000000000000,-0.000041900000000,-0.000041300000000,-0.000043900000000,-0.000000005320000,0.000001500000000,0.000041100000000,0.000071300000000,-0.000001790000000,-0.000084100000000,-0.000073200000000,0.000300000000000,-0.001260000000000,-0.000003230000000,0.000912000000000,0.025000000000000,0.028900000000000,
34300.000000000000000,-0.000042700000000,-0.000042100000000,-0.000044700000000,0.000000000035400,0.000001680000000,0.000041300000000,0.000071600000000,-0.000002360000000,-0.000085000000000,-0.000070900000000,0.000307000000000,-0.001290000000000,0.000000021500000,0.001020000000000,0.025100000000000,0.029000000000000,
34400.000000000000000,-0.000043200000000,-0.000042600000000,-0.000045300000000,0.000000004190000,0.000001820000000,0.000041500000000,0.000071900000000,-0.000002710000000,-0.000085800000000,-0.000069300000000,0.000312000000000,-0.001310000000000,0.000002550000000,0.001110000000000,0.025200000000000,0.029200000000000,
34500.000000000000000,-0.000043600000000,-0.000043000000000,-0.000045700000000,0.000000006670000,0.000001890000000,0.000041700000000,0.000072300000000,-0.000002950000000,-0.000086400000000,-0.000068200000000,0.000316000000000,-0.001330000000000,0.000004060000000,0.001150000000000,0.025300000000000,0.029300000000000,
34600.000000000000000,-0.000043800000000,-0.000043200000000,-0.000045900000000,0.000000007860000,0.000001940000000,0.000041900000000,0.000072600000000,-0.000002970000000,-0.000086800000000,-0.000067700000000,0.000318000000000,-0.001340000000000,0.000004780000000,0.001180000000000,0.025500000000000,0.029400000000000,
34700.000000000000000,-0.000043800000000,-0.000043200000000,-0.000045900000000,0.000000007530000,0.000001920000000,0.000042100000000,0.000073000000000,-0.000002720000000,-0.000087000000000,-0.000067800000000,0.000317000000000,-0.001340000000000,0.000004580000000,0.001170000000000,0.025600000000000,0.029600000000000,
34800.000000000000000,-0.000043700000000,-0.000043000000000,-0.000045800000000,0.000000005540000,0.000001850000000,0.000042400000000,0.000073500000000,-0.000002310000000,-0.000087100000000,-0.000068700000000,0.000316000000000,-0.001330000000000,0.000003370000000,0.001130000000000,0.025800000000000,0.029800000000000,
34900.000000000000000,-0.000043300000000,-0.000042600000000,-0.000045300000000,0.000000002060000,0.000001740000000,0.000042600000000,0.000073900000000,-0.000001640000000,-0.000086900000000,-0.000070700000000,0.000311000000000,-0.001310000000000,0.000001250000000,0.001060000000000,0.025900000000000,0.030000000000000,
35000.000000000000000,-0.000042700000000,-0.000042100000000,-0.000044700000000,-0.000000002790000,0.000001580000000,0.000042900000000,0.000074300000000,-0.000000838000000,-0.000086600000000,-0.000073000000000,0.000306000000000,-0.001290000000000,-0.000001690000000,0.000961000000000,0.026100000000000,0.030100000000000,
35100.000000000000000,-0.000042000000000,-0.000041400000000,-0.000044000000000,-0.000000009060000,0.000001370000000,0.000043100000000,0.000074800000000,0.000000151000000,-0.000086200000000,-0.000076300000000,0.000299000000000,-0.001260000000000,-0.000005510000000,0.000832000000000,0.026200000000000,0.030300000000000,
35200.000000000000000,-0.000041200000000,-0.000040500000000,-0.000043000000000,-0.000000016600000,0.000001130000000,0.000043400000000,0.000075200000000,0.000001310000000,-0.000085500000000,-0.000080200000000,0.000290000000000,-0.001230000000000,-0.000010100000000,0.000690000000000,0.026400000000000,0.030500000000000,
35300.000000000000000,-0.000040200000000,-0.000039600000000,-0.000042100000000,-0.000000024600000,0.000000879000000,0.000043700000000,0.000075700000000,0.000002530000000,-0.000084800000000,-0.000084100000000,0.000281000000000,-0.001190000000000,-0.000014900000000,0.000535000000000,0.026600000000000,0.030700000000000,
35400.000000000000000,-0.000039300000000,-0.000038700000000,-0.000041000000000,-0.000000033200000,0.000000609000000,0.000044000000000,0.000076200000000,0.000003800000000,-0.000084100000000,-0.000088200000000,0.000273000000000,-0.001160000000000,-0.000020200000000,0.000371000000000,0.026700000000000,0.030900000000000,
35500.000000000000000,-0.000038300000000,-0.000037800000000,-0.000040000000000,-0.000000041900000,0.000000345000000,0.000044200000000,0.000076700000000,0.000005060000000,-0.000083400000000,-0.000091800000000,0.000264000000000,-0.001120000000000,-0.000025500000000,0.000210000000000,0.026900000000000,0.031100000000000,
35600.000000000000000,-0.000037500000000,-0.000036900000000,-0.000039100000000,-0.000000050500000,0.000000088400000,0.000044500000000,0.000077100000000,0.000006230000000,-0.000082800000000,-0.000095700000000,0.000256000000000,-0.001090000000000,-0.000030700000000,0.000053800000000,0.027100000000000,0.031300000000000,
35700.000000000000000,-0.000036600000000,-0.000036000000000,-0.000038200000000,-0.000000058500000,-0.000000150000000,0.000044800000000,0.000077500000000,0.000007370000000,-0.000082200000000,-0.000099400000000,0.000248000000000,-0.001050000000000,-0.000035600000000,-0.000091100000000,0.027200000000000,0.031400000000000,
35800.000000000000000,-0.000035900000000,-0.000035300000000,-0.000037400000000,-0.000000065700000,-0.000000358000000,0.000045000000000,0.000078000000000,0.000008430000000,-0.000081700000000,-0.000103000000000,0.000242000000000,-0.001030000000000,-0.000039900000000,-0.000218000000000,0.027400000000000,0.031600000000000,
35900.000000000000000,-0.000035300000000,-0.000034700000000,-0.000036700000000,-0.000000071700000,-0.000000527000000,0.000045300000000,0.000078500000000,0.000009340000000,-0.000081300000000,-0.000105000000000,0.000236000000000,-0.001000000000000,-0.000043600000000,-0.000320000000000,0.027600000000000,0.031800000000000,
36000.000000000000000,-0.000034900000000,-0.000034300000000,-0.000036300000000,-0.000000076100000,-0.000000646000000,0.000045600000000,0.000079000000000,0.000010000000000,-0.000081200000000,-0.000107000000000,0.000233000000000,-0.000987000000000,-0.000046300000000,-0.000393000000000,0.027700000000000,0.032000000000000,
36100.000000000000000,-0.000034600000000,-0.000034100000000,-0.000036100000000,-0.000000078900000,-0.000000715000000,0.000045800000000,0.000079400000000,0.000010500000000,-0.000081200000000,-0.000108000000000,0.000231000000000,-0.000979000000000,-0.000048000000000,-0.000435000000000,0.027900000000000,0.032200000000000,
36200.000000000000000,-0.000034600000000,-0.000034100000000,-0.000036100000000,-0.000000080100000,-0.000000739000000,0.000046000000000,0.000079800000000,0.000010700000000,-0.000081400000000,-0.000108000000000,0.000231000000000,-0.000978000000000,-0.000048700000000,-0.000449000000000,0.028000000000000,0.032300000000000,
36300.000000000000000,-0.000034900000000,-0.000034300000000,-0.000036300000000,-0.000000079100000,-0.000000701000000,0.000046300000000,0.000080200000000,0.000010700000000,-0.000081900000000,-0.000107000000000,0.000232000000000,-0.000986000000000,-0.000048100000000,-0.000427000000000,0.028100000000000,0.032500000000000,
36400.000000000000000,-0.000035200000000,-0.000034600000000,-0.000036700000000,-0.000000076400000,-0.000000611000000,0.000046500000000,0.000080600000000,0.000010600000000,-0.000082400000000,-0.000106000000000,0.000235000000000,-0.000999000000000,-0.000046500000000,-0.000372000000000,0.028300000000000,0.032700000000000,
36500.000000000000000,-0.000035800000000,-0.000035200000000,-0.000037300000000,-0.000000072000000,-0.000000478000000,0.000046700000000,0.000081000000000,0.000010200000000,-0.000083300000000,-0.000103000000000,0.000240000000000,-0.001020000000000,-0.000043800000000,-0.000291000000000,0.028400000000000,0.032800000000000,
36600.000000000000000,-0.000036500000000,-0.000036000000000,-0.000038100000000,-0.000000065800000,-0.000000290000000,0.000047000000000,0.000081300000000,0.000009650000000,-0.000084300000000,-0.000100000000000,0.000246000000000,-0.001050000000000,-0.000040000000000,-0.000177000000000,0.028600000000000,0.033000000000000,
36700.000000000000000,-0.000037400000000,-0.000036800000000,-0.000039000000000,-0.000000058200000,-0.000000058700000,0.000047200000000,0.000081700000000,0.000008950000000,-0.000085400000000,-0.000096700000000,0.000254000000000,-0.001080000000000,-0.000035400000000,-0.000035700000000,0.028700000000000,0.033100000000000,
36800.000000000000000,-0.000038400000000,-0.000037800000000,-0.000040100000000,-0.000000049700000,0.000000183000000,0.000047400000000,0.000082100000000,0.000008100000000,-0.000086600000000,-0.000092700000000,0.000263000000000,-0.001120000000000,-0.000030300000000,0.000111000000000,0.028800000000000,0.033300000000000,
36900.000000000000000,-0.000039500000000,-0.000038900000000,-0.000041200000000,-0.000000040600000,0.000000452000000,0.000047600000000,0.000082500000000,0.000007270000000,-0.000087900000000,-0.000088000000000,0.000272000000000,-0.001160000000000,-0.000024700000000,0.000275000000000,0.028900000000000,0.033400000000000,
37000.000000000000000,-0.000040500000000,-0.000039900000000,-0.000042400000000,-0.000000030800000,0.000000730000000,0.000047800000000,0.000082900000000,0.000006380000000,-0.000089300000000,-0.000083300000000,0.000282000000000,-0.001200000000000,-0.000018700000000,0.000444000000000,0.029100000000000,0.033600000000000,
37100.000000000000000,-0.000041600000000,-0.000041000000000,-0.000043500000000,-0.000000021200000,0.000000996000000,0.000048000000000,0.000083200000000,0.000005500000000,-0.000090600000000,-0.000078900000000,0.000292000000000,-0.001240000000000,-0.000012900000000,0.000605000000000,0.029200000000000,0.033800000000000,
37200.000000000000000,-0.000042600000000,-0.000042000000000,-0.000044600000000,-0.000000012200000,0.000001250000000,0.000048200000000,0.000083600000000,0.000004670000000,-0.000091800000000,-0.000074700000000,0.000301000000000,-0.001280000000000,-0.000007440000000,0.000759000000000,0.029300000000000,0.033900000000000,
37300.000000000000000,-0.000043500000000,-0.000042900000000,-0.000045500000000,-0.000000003970000,0.000001480000000,0.000048500000000,0.000084000000000,0.000003970000000,-0.000093000000000,-0.000070700000000,0.000310000000000,-0.001320000000000,-0.000002420000000,0.000900000000000,0.029500000000000,0.034100000000000,
37400.000000000000000,-0.000044200000000,-0.000043600000000,-0.000046300000000,0.000000003320000,0.000001670000000,0.000048700000000,0.000084400000000,0.000003460000000,-0.000094000000000,-0.000067300000000,0.000317000000000,-0.001340000000000,0.000002020000000,0.001020000000000,0.029600000000000,0.034200000000000,
37500.000000000000000,-0.000044800000000,-0.000044200000000,-0.000047000000000,0.000000009080000,0.000001820000000,0.000049000000000,0.000084900000000,0.000003100000000,-0.000094900000000,-0.000064500000000,0.000323000000000,-0.001370000000000,0.000005520000000,0.001110000000000,0.029800000000000,0.034400000000000,
37600.000000000000000,-0.000045200000000,-0.000044600000000,-0.000047400000000,0.000000012900000,0.000001920000000,0.000049200000000,0.000085300000000,0.000002930000000,-0.000095600000000,-0.000062500000000,0.000327000000000,-0.001380000000000,0.000007830000000,0.001170000000000,0.029900000000000,0.034600000000000,
37700.000000000000000,-0.000045500000000,-0.000044800000000,-0.000047600000000,0.000000014600000,0.000001970000000,0.000049400000000,0.000085800000000,0.000002950000000,-0.000096000000000,-0.000061100000000,0.000329000000000,-0.001390000000000,0.000008850000000,0.001200000000000,0.030100000000000,0.034800000000000,
37800.000000000000000,-0.000045500000000,-0.000044900000000,-0.000047700000000,0.000000014300000,0.000001960000000,0.000049700000000,0.000086200000000,0.000003190000000,-0.000096400000000,-0.000060100000000,0.000329000000000,-0.001400000000000,0.000008730000000,0.001190000000000,0.030200000000000,0.035000000000000,
37900.000000000000000,-0.000045300000000,-0.000044700000000,-0.000047500000000,0.000000012100000,0.000001900000000,0.000050000000000,0.000086700000000,0.000003650000000,-0.000096500000000,-0.000060200000000,0.000327000000000,-0.001390000000000,0.000007360000000,0.001150000000000,0.030400000000000,0.035200000000000,
38000.000000000000000,-0.000044900000000,-0.000044300000000,-0.000047100000000,0.000000007960000,0.000001790000000,0.000050300000000,0.000087200000000,0.000004330000000,-0.000096300000000,-0.000061100000000,0.000323000000000,-0.001370000000000,0.000004840000000,0.001090000000000,0.030600000000000,0.035400000000000,
38100.000000000000000,-0.000044400000000,-0.000043700000000,-0.000046500000000,0.000000001770000,0.000001630000000,0.000050600000000,0.000087700000000,0.000005190000000,-0.000096000000000,-0.000062600000000,0.000317000000000,-0.001350000000000,0.000001080000000,0.000992000000000,0.030800000000000,0.035600000000000,
38200.000000000000000,-0.000043700000000,-0.000043000000000,-0.000045700000000,-0.000000006120000,0.000001420000000,0.000050900000000,0.000088200000000,0.000006220000000,-0.000095600000000,-0.000064900000000,0.000310000000000,-0.001330000000000,-0.000003720000000,0.000867000000000,0.030900000000000,0.035800000000000,
38300.000000000000000,-0.000042800000000,-0.000042200000000,-0.000044800000000,-0.000000015300000,0.000001190000000,0.000051200000000,0.000088700000000,0.000007390000000,-0.000095000000000,-0.000067800000000,0.000302000000000,-0.001290000000000,-0.000009290000000,0.000726000000000,0.031100000000000,0.036000000000000,
38400.000000000000000,-0.000041900000000,-0.000041300000000,-0.000043800000000,-0.000000025200000,0.000000946000000,0.000051500000000,0.000089200000000,0.000008660000000,-0.000094400000000,-0.000070700000000,0.000293000000000,-0.001260000000000,-0.000015300000000,0.000575000000000,0.031300000000000,0.036200000000000,
38500.000000000000000,-0.000041000000000,-0.000040400000000,-0.000042800000000,-0.000000035900000,0.000000682000000,0.000051800000000,0.000089800000000,0.000009940000000,-0.000093700000000,-0.000073500000000,0.000285000000000,-0.001220000000000,-0.000021800000000,0.000415000000000,0.031500000000000,0.036400000000000,
38600.000000000000000,-0.000040000000000,-0.000039400000000,-0.000041900000000,-0.000000046600000,0.000000422000000,0.000052100000000,0.000090300000000,0.000011200000000,-0.000093100000000,-0.000076000000000,0.000276000000000,-0.001190000000000,-0.000028300000000,0.000257000000000,0.031700000000000,0.036600000000000,
38700.000000000000000,-0.000039200000000,-0.000038600000000,-0.000040900000000,-0.000000056500000,0.000000183000000,0.000052200000000,0.000090500000000,0.000012200000000,-0.000092300000000,-0.000078600000000,0.000268000000000,-0.001160000000000,-0.000034500000000,0.000111000000000,0.031900000000000,0.036800000000000,
38800.000000000000000,-0.000038400000000,-0.000037800000000,-0.000040100000000,-0.000000065600000,-0.000000042000000,0.000052300000000,0.000090500000000,0.000013000000000,-0.000091500000000,-0.000080600000000,0.000261000000000,-0.001130000000000,-0.000040300000000,-0.000026100000000,0.032100000000000,0.037100000000000,
38900.000000000000000,-0.000037700000000,-0.000037100000000,-0.000039300000000,-0.000000073300000,-0.000000233000000,0.000052300000000,0.000090600000000,0.000013800000000,-0.000090800000000,-0.000081800000000,0.000255000000000,-0.001110000000000,-0.000045300000000,-0.000142000000000,0.032400000000000,0.037400000000000,
39000.000000000000000,-0.000037200000000,-0.000036600000000,-0.000038800000000,-0.000000079300000,-0.000000372000000,0.000052400000000,0.000090700000000,0.000014400000000,-0.000090300000000,-0.000082300000000,0.000250000000000,-0.001090000000000,-0.000049400000000,-0.000227000000000,0.032600000000000,0.037600000000000,
39100.000000000000000,-0.000036900000000,-0.000036400000000,-0.000038500000000,-0.000000083000000,-0.000000466000000,0.000052400000000,0.000090700000000,0.000014700000000,-0.000090100000000,-0.000082300000000,0.000248000000000,-0.001080000000000,-0.000052100000000,-0.000284000000000,0.032800000000000,0.037800000000000,
39200.000000000000000,-0.000036800000000,-0.000036300000000,-0.000038400000000,-0.000000084400000,-0.000000505000000,0.000052400000000,0.000090700000000,0.000014800000000,-0.000090000000000,-0.000081300000000,0.000247000000000,-0.001080000000000,-0.000053400000000,-0.000308000000000,0.033000000000000,0.038100000000000,
39300.000000000000000,-0.000036900000000,-0.000036400000000,-0.000038500000000,-0.000000083800000,-0.000000489000000,0.000052400000000,0.000090800000000,0.000014700000000,-0.000090100000000,-0.000079300000000,0.000248000000000,-0.001080000000000,-0.000053300000000,-0.000298000000000,0.033200000000000,0.038300000000000,
39400.000000000000000,-0.000037200000000,-0.000036700000000,-0.000038800000000,-0.000000081100000,-0.000000423000000,0.000052400000000,0.000090800000000,0.000014400000000,-0.000090400000000,-0.000076600000000,0.000250000000000,-0.001090000000000,-0.000051900000000,-0.000257000000000,0.033400000000000,0.038500000000000,
39500.000000000000000,-0.000037700000000,-0.000037200000000,-0.000039300000000,-0.000000076200000,-0.000000305000000,0.000052400000000,0.000090800000000,0.000013900000000,-0.000090900000000,-0.000073300000000,0.000255000000000,-0.001110000000000,-0.000049000000000,-0.000185000000000,0.033500000000000,0.038700000000000,
39600.000000000000000,-0.000038400000000,-0.000037900000000,-0.000040000000000,-0.000000069400000,-0.000000136000000,0.000052400000000,0.000090800000000,0.000013200000000,-0.000091600000000,-0.000069500000000,0.000260000000000,-0.001140000000000,-0.000044800000000,-0.000082400000000,0.033700000000000,0.038900000000000,
39700.000000000000000,-0.000039200000000,-0.000038700000000,-0.000040900000000,-0.000000061000000,0.000000072000000,0.000052400000000,0.000090800000000,0.000012300000000,-0.000092500000000,-0.000065200000000,0.000268000000000,-0.001170000000000,-0.000039400000000,0.000044100000000,0.033900000000000,0.039100000000000,
39800.000000000000000,-0.000040200000000,-0.000039600000000,-0.000041900000000,-0.000000051500000,0.000000313000000,0.000052400000000,0.000090800000000,0.000011400000000,-0.000093500000000,-0.000060400000000,0.000276000000000,-0.001210000000000,-0.000033200000000,0.000191000000000,0.034000000000000,0.039300000000000,
39900.000000000000000,-0.000041200000000,-0.000040700000000,-0.000043000000000,-0.000000041400000,0.000000570000000,0.000052400000000,0.000090800000000,0.000010300000000,-0.000094600000000,-0.000054700000000,0.000285000000000,-0.001250000000000,-0.000026400000000,0.000346000000000,0.034200000000000,0.039500000000000,
40000.000000000000000,-0.000042200000000,-0.000041700000000,-0.000044100000000,-0.000000030800000,0.000000832000000,0.000052400000000,0.000090800000000,0.000009240000000,-0.000095600000000,-0.000049000000000,0.000295000000000,-0.001290000000000,-0.000019300000000,0.000506000000000,0.034400000000000,0.039700000000000,
40100.000000000000000,-0.000043300000000,-0.000042700000000,-0.000045200000000,-0.000000020400000,0.000001100000000,0.000052400000000,0.000090700000000,0.000008120000000,-0.000096600000000,-0.000043600000000,0.000304000000000,-0.001330000000000,-0.000012200000000,0.000666000000000,0.034500000000000,0.039900000000000,
40200.000000000000000,-0.000044300000000,-0.000043700000000,-0.000046300000000,-0.000000010900000,0.000001340000000,0.000052300000000,0.000090600000000,0.000007060000000,-0.000097600000000,-0.000038400000000,0.000313000000000,-0.001370000000000,-0.000005560000000,0.000815000000000,0.034700000000000,0.040100000000000,
40300.000000000000000,-0.000045100000000,-0.000044600000000,-0.000047200000000,-0.000000002270000,0.000001560000000,0.000052300000000,0.000090600000000,0.000006110000000,-0.000098500000000,-0.000033400000000,0.000322000000000,-0.001410000000000,0.000000549000000,0.000947000000000,0.034800000000000,0.040300000000000,
40400.000000000000000,-0.000045800000000,-0.000045300000000,-0.000047900000000,0.000000005000000,0.000001740000000,0.000052200000000,0.000090600000000,0.000005390000000,-0.000099200000000,-0.000029000000000,0.000328000000000,-0.001430000000000,0.000005810000000,0.001060000000000,0.035000000000000,0.040500000000000,
40500.000000000000000,-0.000046400000000,-0.000045800000000,-0.000048500000000,0.000000010500000,0.000001880000000,0.000052200000000,0.000090500000000,0.000004810000000,-0.000099700000000,-0.000025000000000,0.000334000000000,-0.001460000000000,0.000009910000000,0.001150000000000,0.035200000000000,0.040700000000000,
40600.000000000000000,-0.000046800000000,-0.000046200000000,-0.000048900000000,0.000000013800000,0.000001960000000,0.000052200000000,0.000090500000000,0.000004420000000,-0.000100000000000,-0.000021300000000,0.000337000000000,-0.001470000000000,0.000012500000000,0.001200000000000,0.035400000000000,0.040900000000000,
40700.000000000000000,-0.000046900000000,-0.000046400000000,-0.000049100000000,0.000000015000000,0.000002000000000,0.000052200000000,0.000090500000000,0.000004230000000,-0.000100000000000,-0.000017800000000,0.000339000000000,-0.001480000000000,0.000013600000000,0.001220000000000,0.035700000000000,0.041200000000000,
40800.000000000000000,-0.000046900000000,-0.000046400000000,-0.000049100000000,0.000000014000000,0.000001980000000,0.000052200000000,0.000090500000000,0.000004260000000,-0.000100000000000,-0.000014800000000,0.000339000000000,-0.001490000000000,0.000013100000000,0.001200000000000,0.035900000000000,0.041500000000000,
40900.000000000000000,-0.000046700000000,-0.000046200000000,-0.000048800000000,0.000000010900000,0.000001900000000,0.000052200000000,0.000090600000000,0.000004510000000,-0.000100000000000,-0.000012700000000,0.000336000000000,-0.001480000000000,0.000011100000000,0.001160000000000,0.036100000000000,0.041800000000000,
41000.000000000000000,-0.000046300000000,-0.000045800000000,-0.000048400000000,0.000000005900000,0.000001780000000,0.000052300000000,0.000090600000000,0.000004950000000,-0.000099600000000,-0.000011500000000,0.000332000000000,-0.001470000000000,0.000007600000000,0.001080000000000,0.036400000000000,0.042000000000000,
41100.000000000000000,-0.000045700000000,-0.000045200000000,-0.000047700000000,-0.000000000917000,0.000001600000000,0.000052300000000,0.000090600000000,0.000005600000000,-0.000099000000000,-0.000010800000000,0.000326000000000,-0.001450000000000,0.000002640000000,0.000980000000000,0.036600000000000,0.042300000000000,
41200.000000000000000,-0.000045000000000,-0.000044500000000,-0.000047000000000,-0.000000009230000,0.000001390000000,0.000052300000000,0.000090700000000,0.000006390000000,-0.000098300000000,-0.000010900000000,0.000319000000000,-0.001420000000000,-0.000003560000000,0.000852000000000,0.036900000000000,0.042600000000000,
41300.000000000000000,-0.000044100000000,-0.000043600000000,-0.000046000000000,-0.000000018400000,0.000001160000000,0.000052400000000,0.000090700000000,0.000007310000000,-0.000097400000000,-0.000011300000000,0.000310000000000,-0.001390000000000,-0.000010600000000,0.000710000000000,0.037100000000000,0.042900000000000,
41400.000000000000000,-0.000043200000000,-0.000042800000000,-0.000045100000000,-0.000000028100000,0.000000906000000,0.000052400000000,0.000090800000000,0.000008260000000,-0.000096600000000,-0.000011300000000,0.000302000000000,-0.001360000000000,-0.000018100000000,0.000559000000000,0.037400000000000,0.043200000000000,
41500.000000000000000,-0.000042300000000,-0.000041900000000,-0.000044100000000,-0.000000038000000,0.000000656000000,0.000052500000000,0.000090900000000,0.000009230000000,-0.000095700000000,-0.000011200000000,0.000294000000000,-0.001330000000000,-0.000025900000000,0.000408000000000,0.037600000000000,0.043500000000000,
41600.000000000000000,-0.000041500000000,-0.000041100000000,-0.000043200000000,-0.000000047600000,0.000000413000000,0.000052500000000,0.000091000000000,0.000010100000000,-0.000094900000000,-0.000010600000000,0.000286000000000,-0.001300000000000,-0.000033600000000,0.000261000000000,0.037900000000000,0.043800000000000,
41700.000000000000000,-0.000040700000000,-0.000040300000000,-0.000042400000000,-0.000000056200000,0.000000183000000,0.000052500000000,0.000091000000000,0.000011000000000,-0.000094100000000,-0.000009420000000,0.000279000000000,-0.001280000000000,-0.000040800000000,0.000123000000000,0.038200000000000,0.044100000000000,
41800.000000000000000,-0.000040000000000,-0.000039600000000,-0.000041600000000,-0.000000063600000,-0.000000008800000,0.000052600000000,0.000091100000000,0.000011800000000,-0.000093400000000,-0.000007410000000,0.000272000000000,-0.001250000000000,-0.000047100000000,0.000007770000000,0.038500000000000,0.044500000000000,
41900.000000000000000,-0.000039500000000,-0.000039100000000,-0.000041000000000,-0.000000069400000,-0.000000162000000,0.000052600000000,0.000091200000000,0.000012400000000,-0.000092900000000,-0.000004490000000,0.000268000000000,-0.001240000000000,-0.000052300000000,-0.000083800000000,0.038800000000000,0.044800000000000,
42000.000000000000000,-0.000039100000000,-0.000038800000000,-0.000040700000000,-0.000000073400000,-0.000000271000000,0.000052700000000,0.000091200000000,0.000012800000000,-0.000092600000000,-0.000001110000000,0.000265000000000,-0.001230000000000,-0.000056000000000,-0.000148000000000,0.039100000000000,0.045200000000000,
42100.000000000000000,-0.000039000000000,-0.000038600000000,-0.000040500000000,-0.000000075000000,-0.000000320000000,0.000052700000000,0.000091300000000,0.000012900000000,-0.000092400000000,0.000002770000000,0.000264000000000,-0.001230000000000,-0.000057900000000,-0.000177000000000,0.039400000000000,0.045500000000000,
42200.000000000000000,-0.000039100000000,-0.000038700000000,-0.000040600000000,-0.000000074700000,-0.000000314000000,0.000052700000000,0.000091300000000,0.000012900000000,-0.000092500000000,0.000007990000000,0.000264000000000,-0.001240000000000,-0.000058100000000,-0.000172000000000,0.039600000000000,0.045800000000000,
42300.000000000000000,-0.000039400000000,-0.000039000000000,-0.000040900000000,-0.000000072200000,-0.000000265000000,0.000052700000000,0.000091300000000,0.000012600000000,-0.000092800000000,0.000013900000000,0.000266000000000,-0.001250000000000,-0.000056500000000,-0.000140000000000,0.039900000000000,0.046100000000000,
42400.000000000000000,-0.000039800000000,-0.000039400000000,-0.000041300000000,-0.000000067800000,-0.000000158000000,0.000052700000000,0.000091300000000,0.000012200000000,-0.000093300000000,0.000020800000000,0.000270000000000,-0.001280000000000,-0.000053200000000,-0.000073800000000,0.040200000000000,0.046400000000000,
42500.000000000000000,-0.000040400000000,-0.000040100000000,-0.000042000000000,-0.000000061300000,0.000000000485000,0.000052700000000,0.000091300000000,0.000011500000000,-0.000093900000000,0.000028600000000,0.000276000000000,-0.001300000000000,-0.000048000000000,0.000024300000000,0.040500000000000,0.046700000000000,
42600.000000000000000,-0.000041200000000,-0.000040900000000,-0.000042800000000,-0.000000053300000,0.000000191000000,0.000052700000000,0.000091400000000,0.000010700000000,-0.000094800000000,0.000037600000000,0.000283000000000,-0.001340000000000,-0.000041500000000,0.000142000000000,0.040800000000000,0.047100000000000,
42700.000000000000000,-0.000042100000000,-0.000041800000000,-0.000043800000000,-0.000000044300000,0.000000416000000,0.000052700000000,0.000091400000000,0.000009790000000,-0.000095700000000,0.000047200000000,0.000291000000000,-0.001380000000000,-0.000033900000000,0.000280000000000,0.041100000000000,0.047400000000000,
42800.000000000000000,-0.000043100000000,-0.000042700000000,-0.000044800000000,-0.000000034600000,0.000000660000000,0.000052800000000,0.000091400000000,0.000008800000000,-0.000096700000000,0.000057900000000,0.000300000000000,-0.001420000000000,-0.000025500000000,0.000430000000000,0.041400000000000,0.047800000000000,
42900.000000000000000,-0.000044100000000,-0.000043700000000,-0.000045900000000,-0.000000024700000,0.000000901000000,0.000052800000000,0.000091400000000,0.000007810000000,-0.000097800000000,0.000068800000000,0.000309000000000,-0.001470000000000,-0.000016700000000,0.000578000000000,0.041700000000000,0.048100000000000,
43000.000000000000000,-0.000045000000000,-0.000044700000000,-0.000046900000000,-0.000000015100000,0.000001140000000,0.000052800000000,0.000091500000000,0.000006840000000,-0.000098800000000,0.000079400000000,0.000318000000000,-0.001510000000000,-0.000008100000000,0.000723000000000,0.042000000000000,0.048500000000000,
43100.000000000000000,-0.000045900000000,-0.000045500000000,-0.000047800000000,-0.000000006410000,0.000001360000000,0.000052800000000,0.000091400000000,0.000005920000000,-0.000099600000000,0.000089900000000,0.000326000000000,-0.001550000000000,0.000000040400000,0.000862000000000,0.042300000000000,0.048800000000000,
43200.000000000000000,-0.000046700000000,-0.000046300000000,-0.000048600000000,0.000000001380000,0.000001550000000,0.000052700000000,0.000091400000000,0.000005090000000,-0.000100000000000,0.000101000000000,0.000333000000000,-0.001590000000000,0.000007400000000,0.000980000000000,0.042600000000000,0.049200000000000,
43300.000000000000000,-0.000047300000000,-0.000046900000000,-0.000049300000000,0.000000007590000,0.000001700000000,0.000052700000000,0.000091400000000,0.000004470000000,-0.000101000000000,0.000111000000000,0.000339000000000,-0.001620000000000,0.000013400000000,0.001070000000000,0.042900000000000,0.049600000000000,
43400.000000000000000,-0.000047700000000,-0.000047400000000,-0.000049700000000,0.000000011900000,0.000001810000000,0.000052700000000,0.000091300000000,0.000004000000000,-0.000101000000000,0.000121000000000,0.000343000000000,-0.001650000000000,0.000017800000000,0.001140000000000,0.043300000000000,0.050000000000000,
43500.000000000000000,-0.000048000000000,-0.000047600000000,-0.000050000000000,0.000000014200000,0.000001860000000,0.000052700000000,0.000091300000000,0.000003730000000,-0.000102000000000,0.000130000000000,0.000346000000000,-0.001660000000000,0.000020300000000,0.001180000000000,0.043600000000000,0.050400000000000,
43600.000000000000000,-0.000048100000000,-0.000047700000000,-0.000050100000000,0.000000014500000,0.000001860000000,0.000052700000000,0.000091300000000,0.000003650000000,-0.000102000000000,0.000139000000000,0.000347000000000,-0.001680000000000,0.000020900000000,0.001180000000000,0.043900000000000,0.050800000000000,
43700.000000000000000,-0.000048000000000,-0.000047600000000,-0.000049900000000,0.000000012800000,0.000001810000000,0.000052700000000,0.000091300000000,0.000003790000000,-0.000102000000000,0.000147000000000,0.000345000000000,-0.001680000000000,0.000019500000000,0.001150000000000,0.044300000000000,0.051200000000000,
43800.000000000000000,-0.000047600000000,-0.000047300000000,-0.000049600000000,0.000000009080000,0.000001710000000,0.000052700000000,0.000091400000000,0.000004160000000,-0.000101000000000,0.000155000000000,0.000342000000000,-0.001680000000000,0.000016100000000,0.001090000000000,0.044700000000000,0.051600000000000,
43900.000000000000000,-0.000047100000000,-0.000046800000000,-0.000049000000000,0.000000003440000,0.000001560000000,0.000052700000000,0.000091400000000,0.000004700000000,-0.000101000000000,0.000162000000000,0.000337000000000,-0.001670000000000,0.000010700000000,0.001000000000000,0.045000000000000,0.052000000000000,
44000.000000000000000,-0.000046500000000,-0.000046200000000,-0.000048300000000,-0.000000003550000,0.000001370000000,0.000052800000000,0.000091500000000,0.000005400000000,-0.000100000000000,0.000169000000000,0.000330000000000,-0.001650000000000,0.000003660000000,0.000887000000000,0.045400000000000,0.052400000000000,
44100.000000000000000,-0.000045700000000,-0.000045400000000,-0.000047500000000,-0.000000011500000,0.000001150000000,0.000052800000000,0.000091500000000,0.000006210000000,-0.000099400000000,0.000175000000000,0.000323000000000,-0.001630000000000,-0.000004550000000,0.000758000000000,0.045700000000000,0.052800000000000,
44200.000000000000000,-0.000044900000000,-0.000044600000000,-0.000046600000000,-0.000000020100000,0.000000921000000,0.000052800000000,0.000091600000000,0.000007100000000,-0.000098600000000,0.000181000000000,0.000315000000000,-0.001610000000000,-0.000013600000000,0.000620000000000,0.046100000000000,0.053200000000000,
44300.000000000000000,-0.000044100000000,-0.000043800000000,-0.000045700000000,-0.000000029000000,0.000000679000000,0.000052900000000,0.000091600000000,0.000008010000000,-0.000097800000000,0.000188000000000,0.000307000000000,-0.001590000000000,-0.000023200000000,0.000476000000000,0.046500000000000,0.053700000000000,
44400.000000000000000,-0.000043300000000,-0.000043000000000,-0.000044800000000,-0.000000037700000,0.000000445000000,0.000052900000000,0.000091700000000,0.000008880000000,-0.000097000000000,0.000195000000000,0.000300000000000,-0.001570000000000,-0.000032600000000,0.000337000000000,0.046800000000000,0.054100000000000,
44500.000000000000000,-0.000042500000000,-0.000042300000000,-0.000044000000000,-0.000000045500000,0.000000229000000,0.000053000000000,0.000091800000000,0.000009690000000,-0.000096300000000,0.000202000000000,0.000293000000000,-0.001550000000000,-0.000041400000000,0.000208000000000,0.047200000000000,0.054500000000000,
44600.000000000000000,-0.000041800000000,-0.000041600000000,-0.000043300000000,-0.000000052200000,0.000000038900000,0.000053000000000,0.000091800000000,0.000010500000000,-0.000095600000000,0.000210000000000,0.000287000000000,-0.001530000000000,-0.000049200000000,0.000095400000000,0.047600000000000,0.054900000000000,
44700.000000000000000,-0.000041300000000,-0.000041100000000,-0.000042700000000,-0.000000057700000,-0.000000112000000,0.000053100000000,0.000091900000000,0.000011000000000,-0.000095100000000,0.000219000000000,0.000282000000000,-0.001520000000000,-0.000055700000000,0.000006550000000,0.047900000000000,0.055400000000000,
44800.000000000000000,-0.000041000000000,-0.000040800000000,-0.000042400000000,-0.000000061300000,-0.000000216000000,0.000053100000000,0.000092000000000,0.000011400000000,-0.000094800000000,0.000228000000000,0.000279000000000,-0.001520000000000,-0.000060300000000,-0.000054100000000,0.048300000000000,0.055800000000000,
44900.000000000000000,-0.000040900000000,-0.000040600000000,-0.000042200000000,-0.000000062800000,-0.000000270000000,0.000053100000000,0.000092000000000,0.000011600000000,-0.000094600000000,0.000238000000000,0.000278000000000,-0.001530000000000,-0.000062700000000,-0.000084000000000,0.048600000000000,0.056200000000000,
45000.000000000000000,-0.000040900000000,-0.000040700000000,-0.000042200000000,-0.000000062500000,-0.000000272000000,0.000053100000000,0.000092000000000,0.000011500000000,-0.000094700000000,0.000248000000000,0.000278000000000,-0.001540000000000,-0.000063000000000,-0.000082900000000,0.049000000000000,0.056600000000000,
45100.000000000000000,-0.000041200000000,-0.000040900000000,-0.000042500000000,-0.000000060400000,-0.000000227000000,0.000053100000000,0.000092000000000,0.000011300000000,-0.000095000000000,0.000260000000000,0.000281000000000,-0.001560000000000,-0.000061100000000,-0.000053000000000,0.049300000000000,0.057000000000000,
45200.000000000000000,-0.000041600000000,-0.000041400000000,-0.000042900000000,-0.000000056300000,-0.000000129000000,0.000053200000000,0.000092100000000,0.000010900000000,-0.000095400000000,0.000272000000000,0.000284000000000,-0.001580000000000,-0.000057000000000,0.000008540000000,0.049700000000000,0.057300000000000,
45300.000000000000000,-0.000042200000000,-0.000041900000000,-0.000043600000000,-0.000000050400000,0.000000015700000,0.000053200000000,0.000092100000000,0.000010300000000,-0.000096000000000,0.000285000000000,0.000289000000000,-0.001620000000000,-0.000050600000000,0.000098900000000,0.050000000000000,0.057700000000000,
45400.000000000000000,-0.000042900000000,-0.000042700000000,-0.000044300000000,-0.000000043200000,0.000000194000000,0.000053200000000,0.000092100000000,0.000009560000000,-0.000096800000000,0.000297000000000,0.000296000000000,-0.001650000000000,-0.000042700000000,0.000209000000000,0.050300000000000,0.058100000000000,
45500.000000000000000,-0.000043700000000,-0.000043500000000,-0.000045200000000,-0.000000035200000,0.000000400000000,0.000053200000000,0.000092100000000,0.000008710000000,-0.000097700000000,0.000310000000000,0.000303000000000,-0.001690000000000,-0.000033400000000,0.000336000000000,0.050600000000000,0.058400000000000,
45600.000000000000000,-0.000044600000000,-0.000044400000000,-0.000046200000000,-0.000000026700000,0.000000623000000,0.000053200000000,0.000092200000000,0.000007810000000,-0.000098600000000,0.000324000000000,0.000312000000000,-0.001740000000000,-0.000023400000000,0.000473000000000,0.050900000000000,0.058800000000000,
45700.000000000000000,-0.000045500000000,-0.000045300000000,-0.000047100000000,-0.000000017900000,0.000000845000000,0.000053200000000,0.000092200000000,0.000006890000000,-0.000099600000000,0.000338000000000,0.000320000000000,-0.001780000000000,-0.000013000000000,0.000609000000000,0.051200000000000,0.059100000000000,
45800.000000000000000,-0.000046400000000,-0.000046200000000,-0.000048100000000,-0.000000009590000,0.000001060000000,0.000053200000000,0.000092200000000,0.000006000000000,-0.000100000000000,0.000352000000000,0.000328000000000,-0.001830000000000,-0.000002870000000,0.000741000000000,0.051500000000000,0.059500000000000,
45900.000000000000000,-0.000047200000000,-0.000047000000000,-0.000048900000000,-0.000000001980000,0.000001260000000,0.000053200000000,0.000092200000000,0.000005180000000,-0.000101000000000,0.000366000000000,0.000336000000000,-0.001870000000000,0.000006640000000,0.000866000000000,0.051800000000000,0.059800000000000,
46000.000000000000000,-0.000047900000000,-0.000047700000000,-0.000049600000000,0.000000004540000,0.000001430000000,0.000053200000000,0.000092200000000,0.000004450000000,-0.000102000000000,0.000380000000000,0.000342000000000,-0.001910000000000,0.000014900000000,0.000968000000000,0.052100000000000,0.060200000000000,
46100.000000000000000,-0.000048400000000,-0.000048200000000,-0.000050200000000,0.000000009830000,0.000001560000000,0.000053200000000,0.000092200000000,0.000003910000000,-0.000102000000000,0.000394000000000,0.000347000000000,-0.001940000000000,0.000021500000000,0.001050000000000,0.052500000000000,0.060600000000000,
46200.000000000000000,-0.000048800000000,-0.000048500000000,-0.000050500000000,0.000000013100000,0.000001640000000,0.000053200000000,0.000092100000000,0.000003540000000,-0.000103000000000,0.000407000000000,0.000350000000000,-0.001960000000000,0.000026000000000,0.001100000000000,0.052800000000000,0.061000000000000,
46300.000000000000000,-0.000049000000000,-0.000048700000000,-0.000050700000000,0.000000014400000,0.000001680000000,0.000053200000000,0.000092100000000,0.000003350000000,-0.000103000000000,0.000420000000000,0.000352000000000,-0.001980000000000,0.000028000000000,0.001120000000000,0.053100000000000,0.061400000000000,
46400.000000000000000,-0.000049000000000,-0.000048800000000,-0.000050700000000,0.000000013800000,0.000001660000000,0.000053200000000,0.000092100000000,0.000003330000000,-0.000103000000000,0.000433000000000,0.000352000000000,-0.002000000000000,0.000027700000000,0.001110000000000,0.053500000000000,0.061800000000000,
46500.000000000000000,-0.000048800000000,-0.000048600000000,-0.000050500000000,0.000000011800000,0.000001600000000,0.000053200000000,0.000092200000000,0.000003530000000,-0.000103000000000,0.000445000000000,0.000350000000000,-0.002000000000000,0.000025200000000,0.001080000000000,0.053800000000000,0.062200000000000,
46600.000000000000000,-0.000048500000000,-0.000048200000000,-0.000050100000000,0.000000007680000,0.000001480000000,0.000053200000000,0.000092200000000,0.000003920000000,-0.000103000000000,0.000457000000000,0.000347000000000,-0.002000000000000,0.000020200000000,0.001010000000000,0.054200000000000,0.062600000000000,
46700.000000000000000,-0.000047900000000,-0.000047700000000,-0.000049600000000,0.000000002050000,0.000001330000000,0.000053200000000,0.000092200000000,0.000004480000000,-0.000102000000000,0.000468000000000,0.000342000000000,-0.002000000000000,0.000012900000000,0.000921000000000,0.054500000000000,0.063000000000000,
46800.000000000000000,-0.000047300000000,-0.000047100000000,-0.000048900000000,-0.000000004650000,0.000001140000000,0.000053200000000,0.000092200000000,0.000005190000000,-0.000101000000000,0.000478000000000,0.000335000000000,-0.001980000000000,0.000004070000000,0.000812000000000,0.054900000000000,0.063400000000000,
46900.000000000000000,-0.000046600000000,-0.000046400000000,-0.000048100000000,-0.000000012000000,0.000000931000000,0.000053300000000,0.000092300000000,0.000005960000000,-0.000101000000000,0.000489000000000,0.000328000000000,-0.001970000000000,-0.000005940000000,0.000688000000000,0.055300000000000,0.063800000000000,
47000.000000000000000,-0.000045800000000,-0.000045600000000,-0.000047300000000,-0.000000019900000,0.000000709000000,0.000053300000000,0.000092400000000,0.000006780000000,-0.000099900000000,0.000500000000000,0.000321000000000,-0.001950000000000,-0.000016800000000,0.000556000000000,0.055600000000000,0.064200000000000,
47100.000000000000000,-0.000045100000000,-0.000044900000000,-0.000046500000000,-0.000000027800000,0.000000492000000,0.000053400000000,0.000092400000000,0.000007610000000,-0.000099100000000,0.000511000000000,0.000314000000000,-0.001940000000000,-0.000027700000000,0.000428000000000,0.056000000000000,0.064700000000000,
47200.000000000000000,-0.000044400000000,-0.000044200000000,-0.000045700000000,-0.000000035200000,0.000000284000000,0.000053400000000,0.000092500000000,0.000008370000000,-0.000098400000000,0.000522000000000,0.000307000000000,-0.001930000000000,-0.000038300000000,0.000304000000000,0.056300000000000,0.065100000000000,
47300.000000000000000,-0.000043700000000,-0.000043600000000,-0.000045000000000,-0.000000041800000,0.000000094900000,0.000053400000000,0.000092600000000,0.000009090000000,-0.000097800000000,0.000534000000000,0.000301000000000,-0.001920000000000,-0.000047900000000,0.000193000000000,0.056700000000000,0.065500000000000,
47400.000000000000000,-0.000043200000000,-0.000043000000000,-0.000044400000000,-0.000000047100000,-0.000000057900000,0.000053500000000,0.000092600000000,0.000009690000000,-0.000097300000000,0.000547000000000,0.000297000000000,-0.001910000000000,-0.000055900000000,0.000103000000000,0.057100000000000,0.065900000000000,
47500.000000000000000,-0.000042800000000,-0.000042700000000,-0.000044000000000,-0.000000051100000,-0.000000173000000,0.000053500000000,0.000092700000000,0.000010100000000,-0.000096900000000,0.000560000000000,0.000293000000000,-0.001910000000000,-0.000062000000000,0.000035600000000,0.057500000000000,0.066400000000000,
47600.000000000000000,-0.000042600000000,-0.000042500000000,-0.000043800000000,-0.000000053200000,-0.000000240000000,0.000053500000000,0.000092700000000,0.000010300000000,-0.000096700000000,0.000573000000000,0.000292000000000,-0.001920000000000,-0.000065500000000,-0.000001810000000,0.057800000000000,0.066700000000000,
47700.000000000000000,-0.000042600000000,-0.000042500000000,-0.000043700000000,-0.000000053500000,-0.000000254000000,0.000053500000000,0.000092700000000,0.000010400000000,-0.000096700000000,0.000587000000000,0.000291000000000,-0.001930000000000,-0.000066500000000,-0.000007850000000,0.058100000000000,0.067100000000000,
47800.000000000000000,-0.000042800000000,-0.000042700000000,-0.000043900000000,-0.000000052000000,-0.000000228000000,0.000053600000000,0.000092800000000,0.000010200000000,-0.000096900000000,0.000603000000000,0.000293000000000,-0.001950000000000,-0.000065000000000,0.000010400000000,0.058500000000000,0.067500000000000,
47900.000000000000000,-0.000043100000000,-0.000043000000000,-0.000044300000000,-0.000000048700000,-0.000000151000000,0.000053600000000,0.000092800000000,0.000009860000000,-0.000097300000000,0.000619000000000,0.000296000000000,-0.001980000000000,-0.000060900000000,0.000059300000000,0.058800000000000,0.067900000000000,
48000.000000000000000,-0.000043700000000,-0.000043500000000,-0.000044900000000,-0.000000043800000,-0.000000025800000,0.000053600000000,0.000092800000000,0.000009320000000,-0.000097900000000,0.000635000000000,0.000301000000000,-0.002010000000000,-0.000054100000000,0.000137000000000,0.059100000000000,0.068300000000000,
48100.000000000000000,-0.000044300000000,-0.000044200000000,-0.000045500000000,-0.000000037700000,0.000000132000000,0.000053600000000,0.000092900000000,0.000008680000000,-0.000098500000000,0.000650000000000,0.000306000000000,-0.002050000000000,-0.000045400000000,0.000235000000000,0.059400000000000,0.068700000000000,
48200.000000000000000,-0.000045100000000,-0.000044900000000,-0.000046300000000,-0.000000030700000,0.000000318000000,0.000053600000000,0.000092900000000,0.000007900000000,-0.000099300000000,0.000666000000000,0.000313000000000,-0.002090000000000,-0.000035200000000,0.000349000000000,0.059700000000000,0.069000000000000,
48300.000000000000000,-0.000045900000000,-0.000045700000000,-0.000047200000000,-0.000000023200000,0.000000524000000,0.000053600000000,0.000092900000000,0.000007080000000,-0.000100000000000,0.000683000000000,0.000320000000000,-0.002140000000000,-0.000023900000000,0.000475000000000,0.060000000000000,0.069400000000000,
48400.000000000000000,-0.000046800000000,-0.000046600000000,-0.000048100000000,-0.000000015400000,0.000000728000000,0.000053600000000,0.000092900000000,0.000006230000000,-0.000101000000000,0.000701000000000,0.000328000000000,-0.002180000000000,-0.000012200000000,0.000600000000000,0.060400000000000,0.069700000000000,
48500.000000000000000,-0.000047600000000,-0.000047400000000,-0.000049000000000,-0.000000007900000,0.000000928000000,0.000053700000000,0.000093000000000,0.000005400000000,-0.000102000000000,0.000717000000000,0.000336000000000,-0.002230000000000,-0.000000785000000,0.000722000000000,0.060700000000000,0.070100000000000,
48600.000000000000000,-0.000048300000000,-0.000048200000000,-0.000049800000000,-0.000000001080000,0.000001120000000,0.000053700000000,0.000093000000000,0.000004640000000,-0.000103000000000,0.000735000000000,0.000343000000000,-0.002270000000000,0.000009980000000,0.000838000000000,0.061000000000000,0.070400000000000,
48700.000000000000000,-0.000049000000000,-0.000048800000000,-0.000050400000000,0.000000004780000,0.000001270000000,0.000053600000000,0.000092900000000,0.000003960000000,-0.000103000000000,0.000752000000000,0.000349000000000,-0.002310000000000,0.000019200000000,0.000934000000000,0.061300000000000,0.070800000000000,
48800.000000000000000,-0.000049500000000,-0.000049300000000,-0.000050900000000,0.000000009480000,0.000001390000000,0.000053600000000,0.000092900000000,0.000003470000000,-0.000104000000000,0.000770000000000,0.000354000000000,-0.002350000000000,0.000026600000000,0.001010000000000,0.061600000000000,0.071200000000000,
48900.000000000000000,-0.000049800000000,-0.000049600000000,-0.000051300000000,0.000000012300000,0.000001470000000,0.000053600000000,0.000092900000000,0.000003130000000,-0.000104000000000,0.000786000000000,0.000357000000000,-0.002370000000000,0.000031500000000,0.001060000000000,0.062000000000000,0.071600000000000,
49000.000000000000000,-0.000049900000000,-0.000049800000000,-0.000051400000000,0.000000013400000,0.000001500000000,0.000053600000000,0.000092900000000,0.000002960000000,-0.000104000000000,0.000803000000000,0.000358000000000,-0.002400000000000,0.000033600000000,0.001080000000000,0.062300000000000,0.072000000000000,
49100.000000000000000,-0.000050000000000,-0.000049800000000,-0.000051400000000,0.000000012800000,0.000001480000000,0.000053600000000,0.000092900000000,0.000002950000000,-0.000104000000000,0.000820000000000,0.000358000000000,-0.002410000000000,0.000033100000000,0.001070000000000,0.062600000000000,0.072400000000000,
49200.000000000000000,-0.000049800000000,-0.000049600000000,-0.000051300000000,0.000000010800000,0.000001420000000,0.000053600000000,0.000092900000000,0.000003130000000,-0.000104000000000,0.000836000000000,0.000356000000000,-0.002420000000000,0.000030000000000,0.001030000000000,0.063000000000000,0.072800000000000,
49300.000000000000000,-0.000049500000000,-0.000049300000000,-0.000050900000000,0.000000006930000,0.000001310000000,0.000053700000000,0.000093000000000,0.000003510000000,-0.000104000000000,0.000852000000000,0.000353000000000,-0.002430000000000,0.000024100000000,0.000969000000000,0.063300000000000,0.073200000000000,
49400.000000000000000,-0.000049000000000,-0.000048800000000,-0.000050300000000,0.000000001750000,0.000001160000000,0.000053700000000,0.000093000000000,0.000004030000000,-0.000103000000000,0.000867000000000,0.000348000000000,-0.002420000000000,0.000015700000000,0.000882000000000,0.063700000000000,0.073600000000000,
49500.000000000000000,-0.000048400000000,-0.000048200000000,-0.000049700000000,-0.000000004380000,0.000000984000000,0.000053700000000,0.000093000000000,0.000004700000000,-0.000103000000000,0.000881000000000,0.000342000000000,-0.002420000000000,0.000005640000000,0.000779000000000,0.064100000000000,0.074000000000000,
49600.000000000000000,-0.000047700000000,-0.000047500000000,-0.000048900000000,-0.000000011100000,0.000000787000000,0.000053700000000,0.000093100000000,0.000005420000000,-0.000102000000000,0.000896000000000,0.000336000000000,-0.002410000000000,-0.000005680000000,0.000662000000000,0.064400000000000,0.074400000000000,
49700.000000000000000,-0.000047000000000,-0.000046900000000,-0.000048200000000,-0.000000018200000,0.000000586000000,0.000053800000000,0.000093100000000,0.000006180000000,-0.000101000000000,0.000911000000000,0.000329000000000,-0.002400000000000,-0.000017600000000,0.000543000000000,0.064800000000000,0.074800000000000,
49800.000000000000000,-0.000046300000000,-0.000046200000000,-0.000047500000000,-0.000000025100000,0.000000386000000,0.000053800000000,0.000093200000000,0.000006910000000,-0.000101000000000,0.000927000000000,0.000323000000000,-0.002390000000000,-0.000029600000000,0.000426000000000,0.065100000000000,0.075300000000000,
49900.000000000000000,-0.000045700000000,-0.000045600000000,-0.000046800000000,-0.000000031500000,0.000000197000000,0.000053800000000,0.000093200000000,0.000007590000000,-0.000100000000000,0.000942000000000,0.000317000000000,-0.002390000000000,-0.000040900000000,0.000314000000000,0.065500000000000,0.075700000000000,
50000.000000000000000,-0.000045100000000,-0.000045000000000,-0.000046100000000,-0.000000037100000,0.000000034000000,0.000053900000000,0.000093300000000,0.000008230000000,-0.000099500000000,0.000959000000000,0.000311000000000,-0.002380000000000,-0.000050900000000,0.000219000000000,0.065900000000000,0.076100000000000,
50100.000000000000000,-0.000044700000000,-0.000044600000000,-0.000045700000000,-0.000000041600000,-0.000000097000000,0.000053900000000,0.000093400000000,0.000008730000000,-0.000099100000000,0.000976000000000,0.000307000000000,-0.002390000000000,-0.000059100000000,0.000142000000000,0.066200000000000,0.076500000000000,
50200.000000000000000,-0.000044400000000,-0.000044300000000,-0.000045400000000,-0.000000044600000,-0.000000188000000,0.000053900000000,0.000093400000000,0.000009050000000,-0.000098800000000,0.000993000000000,0.000305000000000,-0.002390000000000,-0.000064700000000,0.000089900000000,0.066600000000000,0.076900000000000,
50300.000000000000000,-0.000044300000000,-0.000044200000000,-0.000045200000000,-0.000000045800000,-0.000000232000000,0.000054000000000,0.000093500000000,0.000009180000000,-0.000098700000000,0.001010000000000,0.000304000000000,-0.002410000000000,-0.000067400000000,0.000065900000000,0.066900000000000,0.077300000000000,
50400.000000000000000,-0.000044400000000,-0.000044200000000,-0.000045300000000,-0.000000045400000,-0.000000231000000,0.000054000000000,0.000093500000000,0.000009150000000,-0.000098800000000,0.001030000000000,0.000304000000000,-0.002430000000000,-0.000067400000000,0.000068900000000,0.067300000000000,0.077700000000000,
50500.000000000000000,-0.000044600000000,-0.000044500000000,-0.000045500000000,-0.000000043600000,-0.000000190000000,0.000054000000000,0.000093500000000,0.000008920000000,-0.000099000000000,0.001050000000000,0.000306000000000,-0.002450000000000,-0.000064700000000,0.000096300000000,0.067600000000000,0.078100000000000,
50600.000000000000000,-0.000045000000000,-0.000044900000000,-0.000045900000000,-0.000000040100000,-0.000000101000000,0.000054000000000,0.000093500000000,0.000008530000000,-0.000099500000000,0.001070000000000,0.000310000000000,-0.002490000000000,-0.000059000000000,0.000152000000000,0.068000000000000,0.078500000000000,
50700.000000000000000,-0.000045600000000,-0.000045400000000,-0.000046500000000,-0.000000035200000,0.000000030700000,0.000054000000000,0.000093600000000,0.000007990000000,-0.000100000000000,0.001090000000000,0.000314000000000,-0.002520000000000,-0.000050500000000,0.000234000000000,0.068300000000000,0.078900000000000,
50800.000000000000000,-0.000046200000000,-0.000046100000000,-0.000047200000000,-0.000000029400000,0.000000187000000,0.000054000000000,0.000093600000000,0.000007340000000,-0.000101000000000,0.001110000000000,0.000320000000000,-0.002560000000000,-0.000040300000000,0.000330000000000,0.068600000000000,0.079200000000000,
50900.000000000000000,-0.000046900000000,-0.000046800000000,-0.000047900000000,-0.000000023000000,0.000000366000000,0.000054000000000,0.000093600000000,0.000006600000000,-0.000101000000000,0.001130000000000,0.000327000000000,-0.002610000000000,-0.000028600000000,0.000440000000000,0.068900000000000,0.079600000000000,
51000.000000000000000,-0.000047700000000,-0.000047500000000,-0.000048700000000,-0.000000016200000,0.000000556000000,0.000054100000000,0.000093600000000,0.000005840000000,-0.000102000000000,0.001150000000000,0.000334000000000,-0.002650000000000,-0.000016200000000,0.000556000000000,0.069200000000000,0.079900000000000,
51100.000000000000000,-0.000048500000000,-0.000048300000000,-0.000049600000000,-0.000000009320000,0.000000740000000,0.000054100000000,0.000093700000000,0.000005060000000,-0.000103000000000,0.001170000000000,0.000341000000000,-0.002700000000000,-0.000003620000000,0.000668000000000,0.069500000000000,0.080300000000000,
51200.000000000000000,-0.000049200000000,-0.000049000000000,-0.000050300000000,-0.000000003100000,0.000000919000000,0.000054100000000,0.000093700000000,0.000004330000000,-0.000104000000000,0.001190000000000,0.000348000000000,-0.002750000000000,0.000008280000000,0.000777000000000,0.069800000000000,0.080600000000000,
51300.000000000000000,-0.000049800000000,-0.000049700000000,-0.000051000000000,0.000000002400000,0.000001080000000,0.000054100000000,0.000093700000000,0.000003680000000,-0.000105000000000,0.001210000000000,0.000354000000000,-0.002790000000000,0.000018900000000,0.000873000000000,0.070100000000000,0.081000000000000,
51400.000000000000000,-0.000050400000000,-0.000050200000000,-0.000051500000000,0.000000007050000,0.000001200000000,0.000054100000000,0.000093700000000,0.000003150000000,-0.000105000000000,0.001230000000000,0.000358000000000,-0.002830000000000,0.000027800000000,0.000949000000000,0.070400000000000,0.081400000000000,
51500.000000000000000,-0.000050700000000,-0.000050500000000,-0.000051900000000,0.000000010300000,0.000001280000000,0.000054100000000,0.000093700000000,0.000002790000000,-0.000105000000000,0.001250000000000,0.000362000000000,-0.002860000000000,0.000034000000000,0.001000000000000,0.070800000000000,0.081800000000000,
51600.000000000000000,-0.000050900000000,-0.000050700000000,-0.000052100000000,0.000000011800000,0.000001330000000,0.000054100000000,0.000093700000000,0.000002590000000,-0.000106000000000,0.001270000000000,0.000364000000000,-0.002890000000000,0.000037400000000,0.001030000000000,0.071100000000000,0.082200000000000,
51700.000000000000000,-0.000051000000000,-0.000050800000000,-0.000052200000000,0.000000011700000,0.000001320000000,0.000054100000000,0.000093700000000,0.000002510000000,-0.000106000000000,0.001290000000000,0.000364000000000,-0.002910000000000,0.000037700000000,0.001030000000000,0.071500000000000,0.082600000000000,
51800.000000000000000,-0.000050900000000,-0.000050700000000,-0.000052100000000,0.000000010300000,0.000001280000000,0.000054100000000,0.000093700000000,0.000002620000000,-0.000106000000000,0.001310000000000,0.000363000000000,-0.002930000000000,0.000035300000000,0.001010000000000,0.071800000000000,0.083000000000000,
51900.000000000000000,-0.000050600000000,-0.000050500000000,-0.000051800000000,0.000000007370000,0.000001200000000,0.000054100000000,0.000093700000000,0.000002890000000,-0.000105000000000,0.001330000000000,0.000360000000000,-0.002940000000000,0.000029800000000,0.000958000000000,0.072200000000000,0.083400000000000,
52000.000000000000000,-0.000050200000000,-0.000050100000000,-0.000051300000000,0.000000002910000,0.000001070000000,0.000054100000000,0.000093700000000,0.000003340000000,-0.000105000000000,0.001350000000000,0.000356000000000,-0.002940000000000,0.000021400000000,0.000883000000000,0.072500000000000,0.083800000000000,
52100.000000000000000,-0.000049700000000,-0.000049500000000,-0.000050700000000,-0.000000002360000,0.000000911000000,0.000054100000000,0.000093800000000,0.000003920000000,-0.000104000000000,0.001370000000000,0.000351000000000,-0.002940000000000,0.000011100000000,0.000791000000000,0.072900000000000,0.084200000000000,
52200.000000000000000,-0.000049100000000,-0.000048900000000,-0.000050100000000,-0.000000008200000,0.000000734000000,0.000054200000000,0.000093800000000,0.000004580000000,-0.000104000000000,0.001390000000000,0.000345000000000,-0.002940000000000,-0.000000781000000,0.000688000000000,0.073200000000000,0.084600000000000,
52300.000000000000000,-0.000048500000000,-0.000048300000000,-0.000049400000000,-0.000000014400000,0.000000547000000,0.000054200000000,0.000093900000000,0.000005260000000,-0.000103000000000,0.001410000000000,0.000339000000000,-0.002940000000000,-0.000013500000000,0.000578000000000,0.073600000000000,0.085000000000000,
52400.000000000000000,-0.000047800000000,-0.000047700000000,-0.000048700000000,-0.000000020800000,0.000000365000000,0.000054200000000,0.000093900000000,0.000005950000000,-0.000103000000000,0.001420000000000,0.000333000000000,-0.002940000000000,-0.000026300000000,0.000471000000000,0.074000000000000,0.085400000000000,
52500.000000000000000,-0.000047300000000,-0.000047100000000,-0.000048100000000,-0.000000026700000,0.000000187000000,0.000054200000000,0.000094000000000,0.000006570000000,-0.000102000000000,0.001440000000000,0.000328000000000,-0.002930000000000,-0.000038600000000,0.000366000000000,0.074300000000000,0.085800000000000,
52600.000000000000000,-0.000046800000000,-0.000046600000000,-0.000047500000000,-0.000000031700000,0.000000031100000,0.000054300000000,0.000094000000000,0.000007150000000,-0.000101000000000,0.001460000000000,0.000323000000000,-0.002940000000000,-0.000049500000000,0.000275000000000,0.074700000000000,0.086300000000000,
52700.000000000000000,-0.000046300000000,-0.000046200000000,-0.000047100000000,-0.000000035900000,-0.000000090500000,0.000054300000000,0.000094100000000,0.000007620000000,-0.000101000000000,0.001490000000000,0.000319000000000,-0.002940000000000,-0.000058300000000,0.000204000000000,0.075000000000000,0.086700000000000,
52800.000000000000000,-0.000046100000000,-0.000045900000000,-0.000046700000000,-0.000000038700000,-0.000000181000000,0.000054300000000,0.000094100000000,0.000007940000000,-0.000101000000000,0.001510000000000,0.000317000000000,-0.002960000000000,-0.000064600000000,0.000152000000000,0.075400000000000,0.087100000000000,
52900.000000000000000,-0.000046000000000,-0.000045800000000,-0.000046600000000,-0.000000039900000,-0.000000226000000,0.000054400000000,0.000094200000000,0.000008070000000,-0.000101000000000,0.001530000000000,0.000315000000000,-0.002970000000000,-0.000067800000000,0.000128000000000,0.075700000000000,0.087500000000000,
53000.000000000000000,-0.000046000000000,-0.000045800000000,-0.000046600000000,-0.000000039700000,-0.000000226000000,0.000054400000000,0.000094200000000,0.000008060000000,-0.000101000000000,0.001550000000000,0.000316000000000,-0.003000000000000,-0.000067900000000,0.000130000000000,0.076100000000000,0.087900000000000,
53100.000000000000000,-0.000046200000000,-0.000046100000000,-0.000046900000000,-0.000000038100000,-0.000000190000000,0.000054400000000,0.000094200000000,0.000007850000000,-0.000101000000000,0.001570000000000,0.000318000000000,-0.003030000000000,-0.000065100000000,0.000154000000000,0.076400000000000,0.088300000000000,
53200.000000000000000,-0.000046600000000,-0.000046400000000,-0.000047200000000,-0.000000035200000,-0.000000110000000,0.000054400000000,0.000094200000000,0.000007480000000,-0.000101000000000,0.001600000000000,0.000321000000000,-0.003060000000000,-0.000059100000000,0.000204000000000,0.076700000000000,0.088700000000000,
53300.000000000000000,-0.000047100000000,-0.000046900000000,-0.000047800000000,-0.000000030700000,0.000000010000000,0.000054400000000,0.000094300000000,0.000006980000000,-0.000102000000000,0.001620000000000,0.000325000000000,-0.003100000000000,-0.000050200000000,0.000278000000000,0.077100000000000,0.089000000000000,
53400.000000000000000,-0.000047700000000,-0.000047500000000,-0.000048400000000,-0.000000025500000,0.000000158000000,0.000054400000000,0.000094300000000,0.000006380000000,-0.000102000000000,0.001640000000000,0.000331000000000,-0.003140000000000,-0.000039100000000,0.000369000000000,0.077400000000000,0.089400000000000,
53500.000000000000000,-0.000048400000000,-0.000048200000000,-0.000049100000000,-0.000000019800000,0.000000323000000,0.000054400000000,0.000094300000000,0.000005700000000,-0.000103000000000,0.001660000000000,0.000337000000000,-0.003190000000000,-0.000026700000000,0.000470000000000,0.077700000000000,0.089700000000000,
53600.000000000000000,-0.000049100000000,-0.000048900000000,-0.000049800000000,-0.000000013800000,0.000000497000000,0.000054500000000,0.000094300000000,0.000005000000000,-0.000104000000000,0.001690000000000,0.000343000000000,-0.003240000000000,-0.000013500000000,0.000576000000000,0.078000000000000,0.090100000000000,
53700.000000000000000,-0.000049800000000,-0.000049600000000,-0.000050600000000,-0.000000007610000,0.000000668000000,0.000054500000000,0.000094400000000,0.000004280000000,-0.000105000000000,0.001710000000000,0.000350000000000,-0.003280000000000,-0.000000142000000,0.000681000000000,0.078300000000000,0.090500000000000,
53800.000000000000000,-0.000050400000000,-0.000050200000000,-0.000051300000000,-0.000000002230000,0.000000833000000,0.000054500000000,0.000094400000000,0.000003630000000,-0.000105000000000,0.001730000000000,0.000356000000000,-0.003330000000000,0.000012300000000,0.000781000000000,0.078600000000000,0.090800000000000,
53900.000000000000000,-0.000051000000000,-0.000050800000000,-0.000051900000000,0.000000002220000,0.000000953000000,0.000054500000000,0.000094400000000,0.000003060000000,-0.000106000000000,0.001760000000000,0.000361000000000,-0.003370000000000,0.000022400000000,0.000854000000000,0.078900000000000,0.091200000000000,
54000.000000000000000,-0.000051500000000,-0.000051200000000,-0.000052300000000,0.000000006270000,0.000001070000000,0.000054500000000,0.000094400000000,0.000002630000000,-0.000106000000000,0.001780000000000,0.000365000000000,-0.003420000000000,0.000031500000000,0.000925000000000,0.079300000000000,0.091600000000000,
54100.000000000000000,-0.000051800000000,-0.000051600000000,-0.000052700000000,0.000000009240000,0.000001160000000,0.000054500000000,0.000094500000000,0.000002320000000,-0.000107000000000,0.001810000000000,0.000368000000000,-0.003450000000000,0.000038200000000,0.000980000000000,0.079700000000000,0.092000000000000,
54200.000000000000000,-0.000052000000000,-0.000051800000000,-0.000052900000000,0.000000010300000,0.000001190000000,0.000054500000000,0.000094400000000,0.000002110000000,-0.000107000000000,0.001840000000000,0.000370000000000,-0.003480000000000,0.000041300000000,0.001000000000000,0.080000000000000,0.092400000000000,
54300.000000000000000,-0.000052000000000,-0.000051800000000,-0.000052900000000,0.000000009970000,0.000001170000000,0.000054500000000,0.000094400000000,0.000002080000000,-0.000107000000000,0.001860000000000,0.000370000000000,-0.003510000000000,0.000040800000000,0.000992000000000,0.080300000000000,0.092800000000000,
54400.000000000000000,-0.000051900000000,-0.000051700000000,-0.000052700000000,0.000000008290000,0.000001120000000,0.000054500000000,0.000094400000000,0.000002210000000,-0.000107000000000,0.001890000000000,0.000369000000000,-0.003530000000000,0.000037300000000,0.000963000000000,0.080700000000000,0.093300000000000,
54500.000000000000000,-0.000051600000000,-0.000051400000000,-0.000052500000000,0.000000005170000,0.000001030000000,0.000054500000000,0.000094500000000,0.000002500000000,-0.000107000000000,0.001910000000000,0.000366000000000,-0.003550000000000,0.000030600000000,0.000912000000000,0.081100000000000,0.093700000000000,
54600.000000000000000,-0.000051200000000,-0.000051000000000,-0.000052000000000,0.000000000758000,0.000000899000000,0.000054600000000,0.000094500000000,0.000002960000000,-0.000106000000000,0.001930000000000,0.000362000000000,-0.003550000000000,0.000020800000000,0.000838000000000,0.081400000000000,0.094100000000000,
54700.000000000000000,-0.000050700000000,-0.000050400000000,-0.000051400000000,-0.000000004410000,0.000000738000000,0.000054600000000,0.000094500000000,0.000003550000000,-0.000106000000000,0.001960000000000,0.000356000000000,-0.003560000000000,0.000008600000000,0.000743000000000,0.081800000000000,0.094500000000000,
54800.000000000000000,-0.000050100000000,-0.000049900000000,-0.000050700000000,-0.000000009860000,0.000000562000000,0.000054600000000,0.000094600000000,0.000004190000000,-0.000105000000000,0.001980000000000,0.000351000000000,-0.003560000000000,-0.000004730000000,0.000640000000000,0.082200000000000,0.094900000000000,
54900.000000000000000,-0.000049500000000,-0.000049300000000,-0.000050100000000,-0.000000015700000,0.000000381000000,0.000054600000000,0.000094600000000,0.000004810000000,-0.000104000000000,0.002000000000000,0.000345000000000,-0.003570000000000,-0.000018600000000,0.000534000000000,0.082500000000000,0.095400000000000,
55000.000000000000000,-0.000048900000000,-0.000048700000000,-0.000049500000000,-0.000000021500000,0.000000222000000,0.000054700000000,0.000094700000000,0.000005430000000,-0.000104000000000,0.002030000000000,0.000340000000000,-0.003570000000000,-0.000031900000000,0.000441000000000,0.082900000000000,0.095800000000000,
55100.000000000000000,-0.000048500000000,-0.000048300000000,-0.000049000000000,-0.000000026100000,0.000000070900000,0.000054700000000,0.000094700000000,0.000005960000000,-0.000103000000000,0.002050000000000,0.000335000000000,-0.003570000000000,-0.000043700000000,0.000353000000000,0.083200000000000,0.096200000000000,
55200.000000000000000,-0.000048100000000,-0.000047900000000,-0.000048500000000,-0.000000029900000,-0.000000054800000,0.000054700000000,0.000094700000000,0.000006410000000,-0.000103000000000,0.002070000000000,0.000331000000000,-0.003590000000000,-0.000053500000000,0.000280000000000,0.083600000000000,0.096600000000000,
55300.000000000000000,-0.000047800000000,-0.000047600000000,-0.000048200000000,-0.000000032900000,-0.000000148000000,0.000054700000000,0.000094800000000,0.000006740000000,-0.000103000000000,0.002100000000000,0.000329000000000,-0.003600000000000,-0.000061000000000,0.000226000000000,0.084000000000000,0.097000000000000,
55400.000000000000000,-0.000047600000000,-0.000047400000000,-0.000048000000000,-0.000000034700000,-0.000000206000000,0.000054800000000,0.000094800000000,0.000006940000000,-0.000103000000000,0.002130000000000,0.000327000000000,-0.003620000000000,-0.000065600000000,0.000194000000000,0.084300000000000,0.097400000000000,
55500.000000000000000,-0.000047600000000,-0.000047400000000,-0.000048000000000,-0.000000035100000,-0.000000219000000,0.000054800000000,0.000094900000000,0.000006990000000,-0.000103000000000,0.002150000000000,0.000327000000000,-0.003650000000000,-0.000066900000000,0.000189000000000,0.084600000000000,0.097800000000000,
55600.000000000000000,-0.000047700000000,-0.000047500000000,-0.000048100000000,-0.000000034000000,-0.000000201000000,0.000054800000000,0.000094900000000,0.000006860000000,-0.000103000000000,0.002180000000000,0.000328000000000,-0.003680000000000,-0.000065100000000,0.000201000000000,0.085000000000000,0.098200000000000,
55700.000000000000000,-0.000048000000000,-0.000047800000000,-0.000048400000000,-0.000000031800000,-0.000000146000000,0.000054800000000,0.000094900000000,0.000006570000000,-0.000103000000000,0.002210000000000,0.000331000000000,-0.003710000000000,-0.000060200000000,0.000237000000000,0.085300000000000,0.098600000000000,
55800.000000000000000,-0.000048500000000,-0.000048300000000,-0.000048900000000,-0.000000028400000,-0.000000044400000,0.000054800000000,0.000094900000000,0.000006140000000,-0.000103000000000,0.002230000000000,0.000334000000000,-0.003750000000000,-0.000051800000000,0.000299000000000,0.085600000000000,0.099000000000000,
55900.000000000000000,-0.000049000000000,-0.000048800000000,-0.000049400000000,-0.000000023800000,0.000000085400000,0.000054800000000,0.000095000000000,0.000005600000000,-0.000104000000000,0.002260000000000,0.000339000000000,-0.003800000000000,-0.000040700000000,0.000379000000000,0.085900000000000,0.099300000000000,
56000.000000000000000,-0.000049700000000,-0.000049400000000,-0.000050100000000,-0.000000018500000,0.000000243000000,0.000054800000000,0.000095000000000,0.000004970000000,-0.000105000000000,0.002280000000000,0.000345000000000,-0.003840000000000,-0.000027400000000,0.000475000000000,0.086300000000000,0.099700000000000,
56100.000000000000000,-0.000050300000000,-0.000050100000000,-0.000050800000000,-0.000000013000000,0.000000410000000,0.000054900000000,0.000095000000000,0.000004290000000,-0.000105000000000,0.002310000000000,0.000351000000000,-0.003890000000000,-0.000013200000000,0.000577000000000,0.086600000000000,0.100000000000000,
56200.000000000000000,-0.000051000000000,-0.000050700000000,-0.000051500000000,-0.000000007470000,0.000000570000000,0.000054900000000,0.000095000000000,0.000003620000000,-0.000106000000000,0.002340000000000,0.000357000000000,-0.003950000000000,0.000000877000000,0.000674000000000,0.086900000000000,0.100000000000000,
56300.000000000000000,-0.000051700000000,-0.000051400000000,-0.000052200000000,-0.000000002460000,0.000000725000000,0.000054900000000,0.000095100000000,0.000002950000000,-0.000107000000000,0.002360000000000,0.000363000000000,-0.003990000000000,0.000014200000000,0.000768000000000,0.087200000000000,0.101000000000000,
56400.000000000000000,-0.000052200000000,-0.000052000000000,-0.000052800000000,0.000000002000000,0.000000860000000,0.000054900000000,0.000095100000000,0.000002390000000,-0.000107000000000,0.002390000000000,0.000369000000000,-0.004040000000000,0.000026000000000,0.000849000000000,0.087500000000000,0.101000000000000,
56500.000000000000000,-0.000052600000000,-0.000052400000000,-0.000053200000000,0.000000005380000,0.000000962000000,0.000054900000000,0.000095100000000,0.000001990000000,-0.000108000000000,0.002420000000000,0.000372000000000,-0.004080000000000,0.000035100000000,0.000912000000000,0.087800000000000,0.102000000000000,
56600.000000000000000,-0.000052900000000,-0.000052600000000,-0.000053500000000,0.000000007460000,0.000001030000000,0.000054900000000,0.000095100000000,0.000001740000000,-0.000108000000000,0.002440000000000,0.000375000000000,-0.004120000000000,0.000040900000000,0.000951000000000,0.088200000000000,0.102000000000000,
56700.000000000000000,-0.000053000000000,-0.000052700000000,-0.000053600000000,0.000000008300000,0.000001050000000,0.000054900000000,0.000095100000000,0.000001600000000,-0.000108000000000,0.002470000000000,0.000376000000000,-0.004150000000000,0.000043500000000,0.000965000000000,0.088500000000000,0.102000000000000,
56800.000000000000000,-0.000053100000000,-0.000052800000000,-0.000053600000000,0.000000008080000,0.000001030000000,0.000054900000000,0.000095100000000,0.000001570000000,-0.000108000000000,0.002500000000000,0.000376000000000,-0.004180000000000,0.000043100000000,0.000960000000000,0.088900000000000,0.103000000000000,
56900.000000000000000,-0.000053000000000,-0.000052700000000,-0.000053500000000,0.000000006420000,0.000000992000000,0.000054900000000,0.000095200000000,0.000001700000000,-0.000108000000000,0.002530000000000,0.000375000000000,-0.004200000000000,0.000039400000000,0.000937000000000,0.089200000000000,0.103000000000000,
57000.000000000000000,-0.000052700000000,-0.000052400000000,-0.000053200000000,0.000000003540000,0.000000903000000,0.000054900000000,0.000095200000000,0.000001950000000,-0.000108000000000,0.002550000000000,0.000372000000000,-0.004220000000000,0.000032200000000,0.000886000000000,0.089600000000000,0.103000000000000,
57100.000000000000000,-0.000052400000000,-0.000052100000000,-0.000052800000000,-0.000000000286000,0.000000783000000,0.000054900000000,0.000095200000000,0.000002360000000,-0.000108000000000,0.002580000000000,0.000369000000000,-0.004230000000000,0.000022200000000,0.000816000000000,0.089900000000000,0.104000000000000,
57200.000000000000000,-0.000051900000000,-0.000051600000000,-0.000052300000000,-0.000000004680000,0.000000642000000,0.000055000000000,0.000095200000000,0.000002890000000,-0.000107000000000,0.002610000000000,0.000364000000000,-0.004240000000000,0.000010200000000,0.000734000000000,0.090300000000000,0.104000000000000,
57300.000000000000000,-0.000051300000000,-0.000051100000000,-0.000051700000000,-0.000000009600000,0.000000479000000,0.000055000000000,0.000095300000000,0.000003480000000,-0.000107000000000,0.002630000000000,0.000359000000000,-0.004250000000000,-0.000003650000000,0.000639000000000,0.090600000000000,0.105000000000000,
57400.000000000000000,-0.000050800000000,-0.000050500000000,-0.000051100000000,-0.000000015000000,0.000000317000000,0.000055000000000,0.000095300000000,0.000004100000000,-0.000106000000000,0.002660000000000,0.000353000000000,-0.004260000000000,-0.000018100000000,0.000544000000000,0.091000000000000,0.105000000000000,
57500.000000000000000,-0.000050300000000,-0.000050000000000,-0.000050500000000,-0.000000020200000,0.000000162000000,0.000055100000000,0.000095400000000,0.000004660000000,-0.000105000000000,0.002690000000000,0.000348000000000,-0.004270000000000,-0.000032100000000,0.000454000000000,0.091300000000000,0.106000000000000,
57600.000000000000000,-0.000049800000000,-0.000049500000000,-0.000050000000000,-0.000000024500000,0.000000011200000,0.000055100000000,0.000095400000000,0.000005150000000,-0.000105000000000,0.002720000000000,0.000344000000000,-0.004280000000000,-0.000044900000000,0.000366000000000,0.091700000000000,0.106000000000000,
57700.000000000000000,-0.000049400000000,-0.000049100000000,-0.000049600000000,-0.000000028200000,-0.000000103000000,0.000055100000000,0.000095400000000,0.000005600000000,-0.000105000000000,0.002740000000000,0.000340000000000,-0.004290000000000,-0.000055300000000,0.000300000000000,0.092100000000000,0.106000000000000,
57800.000000000000000,-0.000049200000000,-0.000048900000000,-0.000049300000000,-0.000000030800000,-0.000000186000000,0.000055100000000,0.000095500000000,0.000005890000000,-0.000104000000000,0.002770000000000,0.000338000000000,-0.004310000000000,-0.000062700000000,0.000253000000000,0.092400000000000,0.107000000000000,
57900.000000000000000,-0.000049100000000,-0.000048800000000,-0.000049200000000,-0.000000031800000,-0.000000226000000,0.000055100000000,0.000095500000000,0.000006010000000,-0.000104000000000,0.002800000000000,0.000337000000000,-0.004340000000000,-0.000066200000000,0.000231000000000,0.092800000000000,0.107000000000000,
58000.000000000000000,-0.000049100000000,-0.000048800000000,-0.000049200000000,-0.000000031600000,-0.000000224000000,0.000055200000000,0.000095500000000,0.000006000000000,-0.000104000000000,0.002830000000000,0.000337000000000,-0.004370000000000,-0.000066100000000,0.000234000000000,0.093100000000000,0.108000000000000,
58100.000000000000000,-0.000049300000000,-0.000049000000000,-0.000049400000000,-0.000000030300000,-0.000000195000000,0.000055200000000,0.000095600000000,0.000005810000000,-0.000105000000000,0.002860000000000,0.000339000000000,-0.004400000000000,-0.000063000000000,0.000253000000000,0.093400000000000,0.108000000000000,
58200.000000000000000,-0.000049700000000,-0.000049400000000,-0.000049800000000,-0.000000027900000,-0.000000124000000,0.000055200000000,0.000095600000000,0.000005480000000,-0.000105000000000,0.002890000000000,0.000342000000000,-0.004450000000000,-0.000056300000000,0.000297000000000,0.093800000000000,0.108000000000000,
58300.000000000000000,-0.000050100000000,-0.000049800000000,-0.000050200000000,-0.000000024200000,-0.000000014900000,0.000055200000000,0.000095600000000,0.000005020000000,-0.000105000000000,0.002920000000000,0.000346000000000,-0.004490000000000,-0.000046200000000,0.000365000000000,0.094100000000000,0.109000000000000,
58400.000000000000000,-0.000050700000000,-0.000050300000000,-0.000050800000000,-0.000000019900000,0.000000110000000,0.000055200000000,0.000095600000000,0.000004490000000,-0.000106000000000,0.002950000000000,0.000351000000000,-0.004540000000000,-0.000034200000000,0.000441000000000,0.094400000000000,0.109000000000000,
58500.000000000000000,-0.000051200000000,-0.000050900000000,-0.000051400000000,-0.000000015500000,0.000000255000000,0.000055200000000,0.000095700000000,0.000003920000000,-0.000107000000000,0.002980000000000,0.000356000000000,-0.004580000000000,-0.000020700000000,0.000529000000000,0.094700000000000,0.109000000000000,
58600.000000000000000,-0.000051800000000,-0.000051500000000,-0.000052000000000,-0.000000010600000,0.000000406000000,0.000055200000000,0.000095700000000,0.000003310000000,-0.000107000000000,0.003010000000000,0.000361000000000,-0.004640000000000,-0.000006370000000,0.000620000000000,0.095000000000000,0.110000000000000,
58700.000000000000000,-0.000052500000000,-0.000052100000000,-0.000052700000000,-0.000000005650000,0.000000552000000,0.000055300000000,0.000095700000000,0.000002690000000,-0.000108000000000,0.003040000000000,0.000367000000000,-0.004690000000000,0.000007870000000,0.000708000000000,0.095300000000000,0.110000000000000,
58800.000000000000000,-0.000053100000000,-0.000052700000000,-0.000053300000000,-0.000000001530000,0.000000694000000,0.000055300000000,0.000095700000000,0.000002090000000,-0.000108000000000,0.003070000000000,0.000372000000000,-0.004740000000000,0.000021200000000,0.000794000000000,0.095600000000000,0.111000000000000,
58900.000000000000000,-0.000053600000000,-0.000053200000000,-0.000053800000000,0.000000002270000,0.000000811000000,0.000055300000000,0.000095800000000,0.000001590000000,-0.000109000000000,0.003100000000000,0.000377000000000,-0.004780000000000,0.000032700000000,0.000865000000000,0.096000000000000,0.111000000000000,
59000.000000000000000,-0.000053900000000,-0.000053600000000,-0.000054200000000,0.000000005290000,0.000000895000000,0.000055300000000,0.000095800000000,0.000001250000000,-0.000109000000000,0.003130000000000,0.000380000000000,-0.004830000000000,0.000041300000000,0.000916000000000,0.096300000000000,0.111000000000000,
59100.000000000000000,-0.000054100000000,-0.000053700000000,-0.000054400000000,0.000000006800000,0.000000940000000,0.000055300000000,0.000095800000000,0.000001070000000,-0.000110000000000,0.003160000000000,0.000382000000000,-0.004860000000000,0.000046200000000,0.000945000000000,0.096600000000000,0.112000000000000,
59200.000000000000000,-0.000054200000000,-0.000053800000000,-0.000054500000000,0.000000006870000,0.000000946000000,0.000055300000000,0.000095800000000,0.000001000000000,-0.000110000000000,0.003190000000000,0.000383000000000,-0.004900000000000,0.000047200000000,0.000950000000000,0.097000000000000,0.112000000000000,
59300.000000000000000,-0.000054100000000,-0.000053800000000,-0.000054400000000,0.000000005810000,0.000000917000000,0.000055300000000,0.000095800000000,0.000001060000000,-0.000110000000000,0.003220000000000,0.000382000000000,-0.004930000000000,0.000044700000000,0.000934000000000,0.097300000000000,0.112000000000000,
59400.000000000000000,-0.000054000000000,-0.000053600000000,-0.000054200000000,0.000000003680000,0.000000848000000,0.000055300000000,0.000095900000000,0.000001250000000,-0.000109000000000,0.003250000000000,0.000380000000000,-0.004950000000000,0.000038400000000,0.000895000000000,0.097700000000000,0.113000000000000,
59500.000000000000000,-0.000053700000000,-0.000053300000000,-0.000053800000000,0.000000000261000,0.000000740000000,0.000055400000000,0.000095900000000,0.000001610000000,-0.000109000000000,0.003280000000000,0.000377000000000,-0.004970000000000,0.000028500000000,0.000833000000000,0.098000000000000,0.113000000000000,
59600.000000000000000,-0.000053200000000,-0.000052800000000,-0.000053300000000,-0.000000003840000,0.000000610000000,0.000055400000000,0.000095900000000,0.000002090000000,-0.000109000000000,0.003310000000000,0.000373000000000,-0.004990000000000,0.000016200000000,0.000757000000000,0.098400000000000,0.114000000000000,
59700.000000000000000,-0.000052700000000,-0.000052300000000,-0.000052800000000,-0.000000008170000,0.000000466000000,0.000055400000000,0.000095900000000,0.000002620000000,-0.000108000000000,0.003340000000000,0.000368000000000,-0.005000000000000,0.000002530000000,0.000673000000000,0.098700000000000,0.114000000000000,
59800.000000000000000,-0.000052200000000,-0.000051900000000,-0.000052300000000,-0.000000012700000,0.000000315000000,0.000055400000000,0.000096000000000,0.000003170000000,-0.000108000000000,0.003370000000000,0.000363000000000,-0.005010000000000,-0.000011800000000,0.000586000000000,0.099100000000000,0.115000000000000,
59900.000000000000000,-0.000051800000000,-0.000051400000000,-0.000051700000000,-0.000000017300000,0.000000171000000,0.000055400000000,0.000096000000000,0.000003690000000,-0.000107000000000,0.003400000000000,0.000358000000000,-0.005030000000000,-0.000025900000000,0.000501000000000,0.099500000000000,0.115000000000000,
60000.000000000000000,-0.000051300000000,-0.000051000000000,-0.000051300000000,-0.000000021400000,0.000000031300000,0.000055400000000,0.000096000000000,0.000004140000000,-0.000107000000000,0.003430000000000,0.000354000000000,-0.005040000000000,-0.000039200000000,0.000421000000000,0.099800000000000,0.115000000000000,
60100.000000000000000,-0.000051000000000,-0.000050600000000,-0.000050900000000,-0.000000024800000,-0.000000083900000,0.000055500000000,0.000096100000000,0.000004570000000,-0.000106000000000,0.003470000000000,0.000351000000000,-0.005060000000000,-0.000050500000000,0.000354000000000,0.100000000000000,0.116000000000000,
60200.000000000000000,-0.000050700000000,-0.000050300000000,-0.000050600000000,-0.000000027600000,-0.000000168000000,0.000055500000000,0.000096100000000,0.000004880000000,-0.000106000000000,0.003500000000000,0.000348000000000,-0.005090000000000,-0.000059000000000,0.000306000000000,0.101000000000000,0.116000000000000,
60300.000000000000000,-0.000050600000000,-0.000050200000000,-0.000050400000000,-0.000000029100000,-0.000000223000000,0.000055500000000,0.000096200000000,0.000005050000000,-0.000106000000000,0.003530000000000,0.000347000000000,-0.005110000000000,-0.000064200000000,0.000275000000000,0.101000000000000,0.117000000000000,
60400.000000000000000,-0.000050500000000,-0.000050100000000,-0.000050300000000,-0.000000029200000,-0.000000235000000,0.000055500000000,0.000096200000000,0.000005100000000,-0.000106000000000,0.003560000000000,0.000347000000000,-0.005140000000000,-0.000065400000000,0.000270000000000,0.101000000000000,0.117000000000000,
60500.000000000000000,-0.000050700000000,-0.000050300000000,-0.000050500000000,-0.000000028300000,-0.000000218000000,0.000055600000000,0.000096200000000,0.000004960000000,-0.000106000000000,0.003600000000000,0.000348000000000,-0.005180000000000,-0.000063200000000,0.000282000000000,0.102000000000000,0.117000000000000,
60600.000000000000000,-0.000051000000000,-0.000050600000000,-0.000050800000000,-0.000000026500000,-0.000000158000000,0.000055600000000,0.000096200000000,0.000004680000000,-0.000106000000000,0.003630000000000,0.000350000000000,-0.005230000000000,-0.000057100000000,0.000319000000000,0.102000000000000,0.118000000000000,
60700.000000000000000,-0.000051400000000,-0.000051000000000,-0.000051200000000,-0.000000023300000,-0.000000057400000,0.000055600000000,0.000096300000000,0.000004260000000,-0.000107000000000,0.003660000000000,0.000354000000000,-0.005270000000000,-0.000047000000000,0.000381000000000,0.102000000000000,0.118000000000000,
60800.000000000000000,-0.000051900000000,-0.000051500000000,-0.000051800000000,-0.000000019200000,0.000000060400000,0.000055600000000,0.000096300000000,0.000003740000000,-0.000107000000000,0.003690000000000,0.000359000000000,-0.005320000000000,-0.000034400000000,0.000452000000000,0.103000000000000,0.118000000000000,
60900.000000000000000,-0.000052500000000,-0.000052100000000,-0.000052400000000,-0.000000014900000,0.000000202000000,0.000055600000000,0.000096300000000,0.000003180000000,-0.000108000000000,0.003730000000000,0.000364000000000,-0.005370000000000,-0.000019900000000,0.000538000000000,0.103000000000000,0.119000000000000,
61000.000000000000000,-0.000053100000000,-0.000052600000000,-0.000053000000000,-0.000000010400000,0.000000346000000,0.000055600000000,0.000096400000000,0.000002610000000,-0.000109000000000,0.003760000000000,0.000369000000000,-0.005430000000000,-0.000004930000000,0.000625000000000,0.103000000000000,0.119000000000000,
61100.000000000000000,-0.000053700000000,-0.000053200000000,-0.000053600000000,-0.000000006000000,0.000000482000000,0.000055600000000,0.000096400000000,0.000002020000000,-0.000109000000000,0.003790000000000,0.000374000000000,-0.005480000000000,0.000009620000000,0.000707000000000,0.103000000000000,0.120000000000000,
61200.000000000000000,-0.000054200000000,-0.000053800000000,-0.000054200000000,-0.000000002300000,0.000000616000000,0.000055700000000,0.000096400000000,0.000001470000000,-0.000110000000000,0.003830000000000,0.000379000000000,-0.005530000000000,0.000023200000000,0.000787000000000,0.104000000000000,0.120000000000000,
61300.000000000000000,-0.000054700000000,-0.000054200000000,-0.000054600000000,0.000000000936000,0.000000720000000,0.000055700000000,0.000096400000000,0.000001020000000,-0.000110000000000,0.003860000000000,0.000384000000000,-0.005580000000000,0.000034400000000,0.000850000000000,0.104000000000000,0.120000000000000,
61400.000000000000000,-0.000055000000000,-0.000054500000000,-0.000055000000000,0.000000003400000,0.000000796000000,0.000055700000000,0.000096500000000,0.000000704000000,-0.000111000000000,0.003890000000000,0.000386000000000,-0.005620000000000,0.000042800000000,0.000896000000000,0.104000000000000,0.121000000000000,
61500.000000000000000,-0.000055200000000,-0.000054700000000,-0.000055100000000,0.000000004760000,0.000000838000000,0.000055700000000,0.000096500000000,0.000000554000000,-0.000111000000000,0.003930000000000,0.000388000000000,-0.005660000000000,0.000047600000000,0.000922000000000,0.105000000000000,0.121000000000000,
61600.000000000000000,-0.000055300000000,-0.000054800000000,-0.000055200000000,0.000000004890000,0.000000840000000,0.000055700000000,0.000096500000000,0.000000486000000,-0.000111000000000,0.003960000000000,0.000389000000000,-0.005700000000000,0.000048600000000,0.000925000000000,0.105000000000000,0.121000000000000,
61700.000000000000000,-0.000055200000000,-0.000054700000000,-0.000055200000000,0.000000003910000,0.000000815000000,0.000055700000000,0.000096500000000,0.000000527000000,-0.000111000000000,0.004000000000000,0.000388000000000,-0.005730000000000,0.000046100000000,0.000912000000000,0.105000000000000,0.122000000000000,
61800.000000000000000,-0.000055100000000,-0.000054600000000,-0.000055000000000,0.000000001940000,0.000000752000000,0.000055700000000,0.000096500000000,0.000000717000000,-0.000111000000000,0.004030000000000,0.000387000000000,-0.005760000000000,0.000039800000000,0.000876000000000,0.106000000000000,0.122000000000000,
61900.000000000000000,-0.000054800000000,-0.000054300000000,-0.000054700000000,-0.000000001040000,0.000000654000000,0.000055700000000,0.000096500000000,0.000001010000000,-0.000110000000000,0.004060000000000,0.000384000000000,-0.005780000000000,0.000029900000000,0.000819000000000,0.106000000000000,0.123000000000000,
62000.000000000000000,-0.000054400000000,-0.000053900000000,-0.000054200000000,-0.000000004720000,0.000000533000000,0.000055700000000,0.000096600000000,0.000001460000000,-0.000110000000000,0.004100000000000,0.000379000000000,-0.005800000000000,0.000017400000000,0.000750000000000,0.106000000000000,0.123000000000000,
62100.000000000000000,-0.000053900000000,-0.000053400000000,-0.000053700000000,-0.000000008730000,0.000000393000000,0.000055800000000,0.000096600000000,0.000001990000000,-0.000110000000000,0.004130000000000,0.000375000000000,-0.005820000000000,0.000002990000000,0.000668000000000,0.107000000000000,0.123000000000000,
62200.000000000000000,-0.000053400000000,-0.000053000000000,-0.000053200000000,-0.000000013100000,0.000000246000000,0.000055800000000,0.000096700000000,0.000002500000000,-0.000109000000000,0.004170000000000,0.000370000000000,-0.005840000000000,-0.000012200000000,0.000583000000000,0.107000000000000,0.124000000000000,
62300.000000000000000,-0.000053000000000,-0.000052500000000,-0.000052600000000,-0.000000017400000,0.000000110000000,0.000055800000000,0.000096700000000,0.000003010000000,-0.000109000000000,0.004200000000000,0.000366000000000,-0.005860000000000,-0.000027000000000,0.000504000000000,0.108000000000000,0.124000000000000,
62400.000000000000000,-0.000052600000000,-0.000052100000000,-0.000052200000000,-0.000000021000000,-0.000000019800000,0.000055800000000,0.000096700000000,0.000003450000000,-0.000108000000000,0.004230000000000,0.000362000000000,-0.005880000000000,-0.000040600000000,0.000429000000000,0.108000000000000,0.125000000000000,
62500.000000000000000,-0.000052300000000,-0.000051800000000,-0.000051900000000,-0.000000024100000,-0.000000125000000,0.000055900000000,0.000096700000000,0.000003800000000,-0.000108000000000,0.004270000000000,0.000359000000000,-0.005900000000000,-0.000051800000000,0.000368000000000,0.108000000000000,0.125000000000000,
62600.000000000000000,-0.000052000000000,-0.000051500000000,-0.000051600000000,-0.000000026300000,-0.000000198000000,0.000055900000000,0.000096800000000,0.000004080000000,-0.000108000000000,0.004310000000000,0.000357000000000,-0.005930000000000,-0.000059600000000,0.000327000000000,0.109000000000000,0.126000000000000,
62700.000000000000000,-0.000051900000000,-0.000051400000000,-0.000051500000000,-0.000000027200000,-0.000000236000000,0.000055900000000,0.000096800000000,0.000004190000000,-0.000108000000000,0.004340000000000,0.000356000000000,-0.005960000000000,-0.000063400000000,0.000306000000000,0.109000000000000,0.126000000000000,
62800.000000000000000,-0.000052000000000,-0.000051500000000,-0.000051500000000,-0.000000027000000,-0.000000234000000,0.000055900000000,0.000096800000000,0.000004150000000,-0.000108000000000,0.004380000000000,0.000356000000000,-0.006000000000000,-0.000063300000000,0.000309000000000,0.109000000000000,0.126000000000000,
62900.000000000000000,-0.000052200000000,-0.000051700000000,-0.000051700000000,-0.000000025900000,-0.000000206000000,0.000055900000000,0.000096900000000,0.000004010000000,-0.000108000000000,0.004410000000000,0.000358000000000,-0.006040000000000,-0.000059800000000,0.000327000000000,0.110000000000000,0.127000000000000,
63000.000000000000000,-0.000052500000000,-0.000052000000000,-0.000052000000000,-0.000000023800000,-0.000000140000000,0.000055900000000,0.000096900000000,0.000003690000000,-0.000108000000000,0.004450000000000,0.000360000000000,-0.006090000000000,-0.000052300000000,0.000368000000000,0.110000000000000,0.127000000000000,
63100.000000000000000,-0.000052900000000,-0.000052400000000,-0.000052500000000,-0.000000020700000,-0.000000038700000,0.000056000000000,0.000096900000000,0.000003270000000,-0.000109000000000,0.004490000000000,0.000364000000000,-0.006140000000000,-0.000041200000000,0.000430000000000,0.110000000000000,0.127000000000000,
63200.000000000000000,-0.000053400000000,-0.000052900000000,-0.000053000000000,-0.000000017000000,0.000000075200000,0.000056000000000,0.000096900000000,0.000002780000000,-0.000109000000000,0.004520000000000,0.000369000000000,-0.006190000000000,-0.000028000000000,0.000498000000000,0.111000000000000,0.128000000000000,
63300.000000000000000,-0.000054000000000,-0.000053400000000,-0.000053500000000,-0.000000013300000,0.000000210000000,0.000056000000000,0.000097000000000,0.000002240000000,-0.000110000000000,0.004560000000000,0.000373000000000,-0.006240000000000,-0.000013300000000,0.000579000000000,0.111000000000000,0.128000000000000,
63400.000000000000000,-0.000054500000000,-0.000053900000000,-0.000054100000000,-0.000000009190000,0.000000342000000,0.000056000000000,0.000097000000000,0.000001710000000,-0.000110000000000,0.004590000000000,0.000378000000000,-0.006300000000000,0.000001850000000,0.000659000000000,0.111000000000000,0.129000000000000,
63500.000000000000000,-0.000055000000000,-0.000054500000000,-0.000054700000000,-0.000000005230000,0.000000470000000,0.000056000000000,0.000097000000000,0.000001170000000,-0.000111000000000,0.004630000000000,0.000383000000000,-0.006350000000000,0.000016500000000,0.000735000000000,0.112000000000000,0.129000000000000,
63600.000000000000000,-0.000055500000000,-0.000055000000000,-0.000055200000000,-0.000000002050000,0.000000589000000,0.000056000000000,0.000097000000000,0.000000659000000,-0.000111000000000,0.004660000000000,0.000388000000000,-0.006400000000000,0.000029800000000,0.000806000000000,0.112000000000000,0.129000000000000,
63700.000000000000000,-0.000055900000000,-0.000055400000000,-0.000055600000000,0.000000000747000,0.000000679000000,0.000056000000000,0.000097100000000,0.000000274000000,-0.000112000000000,0.004700000000000,0.000392000000000,-0.006460000000000,0.000040500000000,0.000860000000000,0.112000000000000,0.130000000000000,
63800.000000000000000,-0.000056200000000,-0.000055600000000,-0.000055900000000,0.000000002790000,0.000000742000000,0.000056100000000,0.000097100000000,0.000000031500000,-0.000112000000000,0.004740000000000,0.000394000000000,-0.006500000000000,0.000048000000000,0.000899000000000,0.113000000000000,0.130000000000000,
63900.000000000000000,-0.000056300000000,-0.000055700000000,-0.000056000000000,0.000000003380000,0.000000765000000,0.000056100000000,0.000097100000000,-0.000000075600000,-0.000112000000000,0.004770000000000,0.000395000000000,-0.006540000000000,0.000051100000000,0.000913000000000,0.113000000000000,0.130000000000000,
64000.000000000000000,-0.000056300000000,-0.000055700000000,-0.000056000000000,0.000000002920000,0.000000753000000,0.000056100000000,0.000097200000000,-0.000000056100000,-0.000112000000000,0.004810000000000,0.000395000000000,-0.006580000000000,0.000050200000000,0.000907000000000,0.113000000000000,0.131000000000000,
64100.000000000000000,-0.000056300000000,-0.000055700000000,-0.000055900000000,0.000000001640000,0.000000713000000,0.000056100000000,0.000097200000000,0.000000030400000,-0.000112000000000,0.004850000000000,0.000394000000000,-0.006610000000000,0.000045700000000,0.000885000000000,0.114000000000000,0.131000000000000,
64200.000000000000000,-0.000056100000000,-0.000055500000000,-0.000055600000000,-0.000000000783000,0.000000631000000,0.000056100000000,0.000097200000000,0.000000268000000,-0.000112000000000,0.004890000000000,0.000392000000000,-0.006640000000000,0.000036900000000,0.000838000000000,0.114000000000000,0.132000000000000,
64300.000000000000000,-0.000055700000000,-0.000055100000000,-0.000055200000000,-0.000000004050000,0.000000522000000,0.000056100000000,0.000097200000000,0.000000663000000,-0.000112000000000,0.004930000000000,0.000388000000000,-0.006670000000000,0.000024800000000,0.000776000000000,0.114000000000000,0.132000000000000,
64400.000000000000000,-0.000055300000000,-0.000054700000000,-0.000054800000000,-0.000000007640000,0.000000399000000,0.000056100000000,0.000097200000000,0.000001100000000,-0.000111000000000,0.004960000000000,0.000384000000000,-0.006690000000000,0.000010800000000,0.000704000000000,0.115000000000000,0.132000000000000,
64500.000000000000000,-0.000054800000000,-0.000054200000000,-0.000054300000000,-0.000000011500000,0.000000262000000,0.000056200000000,0.000097300000000,0.000001610000000,-0.000111000000000,0.005000000000000,0.000380000000000,-0.006710000000000,-0.000004420000000,0.000625000000000,0.115000000000000,0.133000000000000,
64600.000000000000000,-0.000054400000000,-0.000053800000000,-0.000053800000000,-0.000000015400000,0.000000130000000,0.000056200000000,0.000097300000000,0.000002100000000,-0.000110000000000,0.005040000000000,0.000376000000000,-0.006740000000000,-0.000019500000000,0.000549000000000,0.115000000000000,0.133000000000000,
64700.000000000000000,-0.000054000000000,-0.000053400000000,-0.000053400000000,-0.000000019000000,0.000000005520000,0.000056200000000,0.000097300000000,0.000002480000000,-0.000110000000000,0.005070000000000,0.000372000000000,-0.006760000000000,-0.000033800000000,0.000477000000000,0.116000000000000,0.134000000000000,
64800.000000000000000,-0.000053700000000,-0.000053100000000,-0.000053000000000,-0.000000021900000,-0.000000101000000,0.000056200000000,0.000097400000000,0.000002860000000,-0.000110000000000,0.005110000000000,0.000368000000000,-0.006790000000000,-0.000046000000000,0.000416000000000,0.116000000000000,0.134000000000000,
64900.000000000000000,-0.000053500000000,-0.000052800000000,-0.000052700000000,-0.000000024100000,-0.000000180000000,0.000056200000000,0.000097400000000,0.000003150000000,-0.000109000000000,0.005150000000000,0.000366000000000,-0.006820000000000,-0.000055100000000,0.000371000000000,0.116000000000000,0.135000000000000,
65000.000000000000000,-0.000053300000000,-0.000052700000000,-0.000052600000000,-0.000000025600000,-0.000000232000000,0.000056300000000,0.000097400000000,0.000003300000000,-0.000109000000000,0.005190000000000,0.000365000000000,-0.006850000000000,-0.000060900000000,0.000342000000000,0.117000000000000,0.135000000000000,
65100.000000000000000,-0.000053300000000,-0.000052700000000,-0.000052500000000,-0.000000025700000,-0.000000241000000,0.000056300000000,0.000097500000000,0.000003350000000,-0.000109000000000,0.005230000000000,0.000365000000000,-0.006890000000000,-0.000062100000000,0.000337000000000,0.117000000000000,0.135000000000000,
65200.000000000000000,-0.000053500000000,-0.000052800000000,-0.000052700000000,-0.000000025000000,-0.000000226000000,0.000056300000000,0.000097500000000,0.000003220000000,-0.000109000000000,0.005270000000000,0.000366000000000,-0.006930000000000,-0.000059900000000,0.000348000000000,0.117000000000000,0.136000000000000,
65300.000000000000000,-0.000053700000000,-0.000053100000000,-0.000052900000000,-0.000000023500000,-0.000000176000000,0.000056300000000,0.000097500000000,0.000002980000000,-0.000110000000000,0.005310000000000,0.000368000000000,-0.006980000000000,-0.000053800000000,0.000379000000000,0.118000000000000,0.136000000000000,
65400.000000000000000,-0.000054100000000,-0.000053400000000,-0.000053300000000,-0.000000020900000,-0.000000086000000,0.000056300000000,0.000097500000000,0.000002620000000,-0.000110000000000,0.005350000000000,0.000371000000000,-0.007030000000000,-0.000043200000000,0.000433000000000,0.118000000000000,0.136000000000000,
65500.000000000000000,-0.000054600000000,-0.000053900000000,-0.000053800000000,-0.000000017600000,0.000000018700000,0.000056300000000,0.000097600000000,0.000002130000000,-0.000111000000000,0.005390000000000,0.000375000000000,-0.007090000000000,-0.000030200000000,0.000496000000000,0.118000000000000,0.137000000000000,
65600.000000000000000,-0.000055100000000,-0.000054400000000,-0.000054300000000,-0.000000014100000,0.000000146000000,0.000056300000000,0.000097600000000,0.000001650000000,-0.000111000000000,0.005420000000000,0.000380000000000,-0.007140000000000,-0.000015100000000,0.000572000000000,0.119000000000000,0.137000000000000,
65700.000000000000000,-0.000055600000000,-0.000054900000000,-0.000054900000000,-0.000000010300000,0.000000274000000,0.000056400000000,0.000097600000000,0.000001140000000,-0.000112000000000,0.005460000000000,0.000385000000000,-0.007200000000000,0.000000603000000,0.000649000000000,0.119000000000000,0.138000000000000,
65800.000000000000000,-0.000056100000000,-0.000055500000000,-0.000055500000000,-0.000000006670000,0.000000396000000,0.000056400000000,0.000097600000000,0.000000582000000,-0.000112000000000,0.005500000000000,0.000389000000000,-0.007260000000000,0.000015800000000,0.000722000000000,0.119000000000000,0.138000000000000,
65900.000000000000000,-0.000056600000000,-0.000055900000000,-0.000055900000000,-0.000000003610000,0.000000513000000,0.000056400000000,0.000097700000000,0.000000126000000,-0.000113000000000,0.005540000000000,0.000394000000000,-0.007310000000000,0.000029800000000,0.000792000000000,0.120000000000000,0.138000000000000,
66000.000000000000000,-0.000057000000000,-0.000056300000000,-0.000056400000000,-0.000000001000000,0.000000600000000,0.000056400000000,0.000097700000000,-0.000000280000000,-0.000113000000000,0.005580000000000,0.000398000000000,-0.007360000000000,0.000041000000000,0.000844000000000,0.120000000000000,0.139000000000000,
66100.000000000000000,-0.000057300000000,-0.000056600000000,-0.000056600000000,0.000000000747000,0.000000665000000,0.000056400000000,0.000097700000000,-0.000000526000000,-0.000113000000000,0.005620000000000,0.000400000000000,-0.007410000000000,0.000048900000000,0.000883000000000,0.120000000000000,0.139000000000000,
66200.000000000000000,-0.000057400000000,-0.000056700000000,-0.000056700000000,0.000000001650000,0.000000692000000,0.000056400000000,0.000097800000000,-0.000000626000000,-0.000113000000000,0.005660000000000,0.000401000000000,-0.007460000000000,0.000052700000000,0.000900000000000,0.121000000000000,0.139000000000000,
66300.000000000000000,-0.000057500000000,-0.000056700000000,-0.000056800000000,0.000000001360000,0.000000682000000,0.000056400000000,0.000097800000000,-0.000000665000000,-0.000114000000000,0.005700000000000,0.000401000000000,-0.007500000000000,0.000052200000000,0.000895000000000,0.121000000000000,0.140000000000000,
66400.000000000000000,-0.000057400000000,-0.000056700000000,-0.000056700000000,0.000000000209000,0.000000650000000,0.000056500000000,0.000097800000000,-0.000000554000000,-0.000113000000000,0.005740000000000,0.000400000000000,-0.007540000000000,0.000048200000000,0.000877000000000,0.121000000000000,0.140000000000000,
66500.000000000000000,-0.000057200000000,-0.000056500000000,-0.000056500000000,-0.000000001820000,0.000000579000000,0.000056500000000,0.000097800000000,-0.000000346000000,-0.000113000000000,0.005790000000000,0.000398000000000,-0.007570000000000,0.000039800000000,0.000836000000000,0.122000000000000,0.141000000000000,
66600.000000000000000,-0.000056900000000,-0.000056200000000,-0.000056100000000,-0.000000004830000,0.000000477000000,0.000056500000000,0.000097800000000,-0.000000022800000,-0.000113000000000,0.005830000000000,0.000395000000000,-0.007600000000000,0.000027800000000,0.000778000000000,0.122000000000000,0.141000000000000,
66700.000000000000000,-0.000056500000000,-0.000055800000000,-0.000055700000000,-0.000000008040000,0.000000362000000,0.000056500000000,0.000097900000000,0.000000431000000,-0.000113000000000,0.005860000000000,0.000391000000000,-0.007630000000000,0.000013800000000,0.000711000000000,0.122000000000000,0.141000000000000,
66800.000000000000000,-0.000056100000000,-0.000055400000000,-0.000055200000000,-0.000000011400000,0.000000234000000,0.000056500000000,0.000097900000000,0.000000882000000,-0.000112000000000,0.005910000000000,0.000387000000000,-0.007650000000000,-0.000001540000000,0.000637000000000,0.123000000000000,0.142000000000000,
66900.000000000000000,-0.000055700000000,-0.000055000000000,-0.000054800000000,-0.000000015200000,0.000000108000000,0.000056500000000,0.000097900000000,0.000001320000000,-0.000112000000000,0.005950000000000,0.000383000000000,-0.007680000000000,-0.000017200000000,0.000565000000000,0.123000000000000,0.142000000000000,
67000.000000000000000,-0.000055300000000,-0.000054500000000,-0.000054300000000,-0.000000018500000,-0.000000011900000,0.000056600000000,0.000098000000000,0.000001750000000,-0.000111000000000,0.005990000000000,0.000380000000000,-0.007710000000000,-0.000031900000000,0.000496000000000,0.123000000000000,0.143000000000000,
67100.000000000000000,-0.000055000000000,-0.000054300000000,-0.000054000000000,-0.000000021100000,-0.000000118000000,0.000056600000000,0.000098000000000,0.000002080000000,-0.000111000000000,0.006030000000000,0.000377000000000,-0.007740000000000,-0.000044700000000,0.000435000000000,0.124000000000000,0.143000000000000,
67200.000000000000000,-0.000054800000000,-0.000054000000000,-0.000053700000000,-0.000000023400000,-0.000000190000000,0.000056600000000,0.000098000000000,0.000002350000000,-0.000111000000000,0.006070000000000,0.000374000000000,-0.007770000000000,-0.000054100000000,0.000394000000000,0.124000000000000,0.143000000000000,
67300.000000000000000,-0.000054600000000,-0.000053900000000,-0.000053600000000,-0.000000024600000,-0.000000241000000,0.000056600000000,0.000098100000000,0.000002510000000,-0.000111000000000,0.006120000000000,0.000373000000000,-0.007810000000000,-0.000059900000000,0.000366000000000,0.124000000000000,0.144000000000000,
67400.000000000000000,-0.000054600000000,-0.000053900000000,-0.000053600000000,-0.000000024700000,-0.000000250000000,0.000056600000000,0.000098100000000,0.000002520000000,-0.000111000000000,0.006160000000000,0.000373000000000,-0.007850000000000,-0.000061100000000,0.000361000000000,0.125000000000000,0.144000000000000,
67500.000000000000000,-0.000054800000000,-0.000054000000000,-0.000053700000000,-0.000000024000000,-0.000000229000000,0.000056600000000,0.000098100000000,0.000002420000000,-0.000111000000000,0.006200000000000,0.000374000000000,-0.007900000000000,-0.000058200000000,0.000375000000000,0.125000000000000,0.145000000000000,
67600.000000000000000,-0.000055000000000,-0.000054300000000,-0.000054000000000,-0.000000022500000,-0.000000180000000,0.000056700000000,0.000098100000000,0.000002170000000,-0.000111000000000,0.006240000000000,0.000376000000000,-0.007950000000000,-0.000051500000000,0.000405000000000,0.125000000000000,0.145000000000000,
67700.000000000000000,-0.000055400000000,-0.000054700000000,-0.000054400000000,-0.000000020000000,-0.000000089700000,0.000056700000000,0.000098200000000,0.000001770000000,-0.000112000000000,0.006280000000000,0.000380000000000,-0.008010000000000,-0.000040300000000,0.000459000000000,0.126000000000000,0.145000000000000,
67800.000000000000000,-0.000055900000000,-0.000055100000000,-0.000054800000000,-0.000000016800000,0.000000013700000,0.000056700000000,0.000098200000000,0.000001360000000,-0.000112000000000,0.006320000000000,0.000384000000000,-0.008060000000000,-0.000026500000000,0.000521000000000,0.126000000000000,0.146000000000000,
67900.000000000000000,-0.000056400000000,-0.000055600000000,-0.000055300000000,-0.000000013600000,0.000000135000000,0.000056700000000,0.000098200000000,0.000000860000000,-0.000113000000000,0.006370000000000,0.000388000000000,-0.008120000000000,-0.000011000000000,0.000594000000000,0.126000000000000,0.146000000000000,
68000.000000000000000,-0.000056900000000,-0.000056100000000,-0.000055900000000,-0.000000010300000,0.000000257000000,0.000056700000000,0.000098200000000,0.000000363000000,-0.000113000000000,0.006410000000000,0.000393000000000,-0.008180000000000,0.000004870000000,0.000666000000000,0.127000000000000,0.147000000000000,
68100.000000000000000,-0.000057400000000,-0.000056600000000,-0.000056400000000,-0.000000006820000,0.000000373000000,0.000056700000000,0.000098300000000,-0.000000123000000,-0.000114000000000,0.006450000000000,0.000397000000000,-0.008240000000000,0.000020200000000,0.000735000000000,0.127000000000000,0.147000000000000,
68200.000000000000000,-0.000057800000000,-0.000057000000000,-0.000056800000000,-0.000000004230000,0.000000482000000,0.000056700000000,0.000098300000000,-0.000000584000000,-0.000114000000000,0.006490000000000,0.000401000000000,-0.008290000000000,0.000034100000000,0.000799000000000,0.127000000000000,0.147000000000000,
68300.000000000000000,-0.000058200000000,-0.000057400000000,-0.000057200000000,-0.000000001970000,0.000000559000000,0.000056800000000,0.000098300000000,-0.000000935000000,-0.000114000000000,0.006540000000000,0.000405000000000,-0.008350000000000,0.000044800000000,0.000845000000000,0.128000000000000,0.148000000000000,
68400.000000000000000,-0.000058400000000,-0.000057600000000,-0.000057400000000,-0.000000000359000,0.000000615000000,0.000056800000000,0.000098300000000,-0.000001140000000,-0.000115000000000,0.006580000000000,0.000407000000000,-0.008400000000000,0.000052300000000,0.000879000000000,0.128000000000000,0.148000000000000,
68500.000000000000000,-0.000058500000000,-0.000057700000000,-0.000057600000000,0.000000000052700,0.000000635000000,0.000056800000000,0.000098400000000,-0.000001240000000,-0.000115000000000,0.006620000000000,0.000408000000000,-0.008450000000000,0.000055200000000,0.000891000000000,0.128000000000000,0.148000000000000,
68600.000000000000000,-0.000058500000000,-0.000057700000000,-0.000057500000000,-0.000000000423000,0.000000622000000,0.000056800000000,0.000098400000000,-0.000001230000000,-0.000115000000000,0.006670000000000,0.000408000000000,-0.008490000000000,0.000053900000000,0.000884000000000,0.129000000000000,0.149000000000000,
68700.000000000000000,-0.000058500000000,-0.000057600000000,-0.000057400000000,-0.000000001560000,0.000000581000000,0.000056800000000,0.000098400000000,-0.000001120000000,-0.000115000000000,0.006710000000000,0.000407000000000,-0.008530000000000,0.000048700000000,0.000862000000000,0.129000000000000,0.149000000000000,
68800.000000000000000,-0.000058200000000,-0.000057400000000,-0.000057200000000,-0.000000003730000,0.000000504000000,0.000056800000000,0.000098500000000,-0.000000888000000,-0.000115000000000,0.006750000000000,0.000404000000000,-0.008570000000000,0.000039100000000,0.000817000000000,0.129000000000000,0.150000000000000,
68900.000000000000000,-0.000057900000000,-0.000057100000000,-0.000056800000000,-0.000000006590000,0.000000404000000,0.000056800000000,0.000098500000000,-0.000000522000000,-0.000114000000000,0.006800000000000,0.000401000000000,-0.008600000000000,0.000026100000000,0.000760000000000,0.130000000000000,0.150000000000000,
69000.000000000000000,-0.000057500000000,-0.000056700000000,-0.000056400000000,-0.000000009650000,0.000000286000000,0.000056900000000,0.000098500000000,-0.000000102000000,-0.000114000000000,0.006840000000000,0.000397000000000,-0.008630000000000,0.000011000000000,0.000692000000000,0.130000000000000,0.150000000000000,
69100.000000000000000,-0.000057100000000,-0.000056300000000,-0.000056000000000,-0.000000013000000,0.000000161000000,0.000056900000000,0.000098500000000,0.000000344000000,-0.000113000000000,0.006890000000000,0.000393000000000,-0.008660000000000,-0.000005140000000,0.000620000000000,0.130000000000000,0.151000000000000,
69200.000000000000000,-0.000056800000000,-0.000055900000000,-0.000055500000000,-0.000000016400000,0.000000044400000,0.000056900000000,0.000098600000000,0.000000762000000,-0.000113000000000,0.006930000000000,0.000390000000000,-0.008690000000000,-0.000020800000000,0.000553000000000,0.131000000000000,0.151000000000000,
69300.000000000000000,-0.000056400000000,-0.000055600000000,-0.000055200000000,-0.000000019200000,-0.000000070500000,0.000056900000000,0.000098600000000,0.000001120000000,-0.000113000000000,0.006980000000000,0.000386000000000,-0.008730000000000,-0.000035500000000,0.000487000000000,0.131000000000000,0.152000000000000,
69400.000000000000000,-0.000056100000000,-0.000055300000000,-0.000054800000000,-0.000000021600000,-0.000000159000000,0.000056900000000,0.000098600000000,0.000001450000000,-0.000112000000000,0.007020000000000,0.000383000000000,-0.008760000000000,-0.000047300000000,0.000437000000000,0.131000000000000,0.152000000000000,
69500.000000000000000,-0.000056000000000,-0.000055100000000,-0.000054600000000,-0.000000023400000,-0.000000220000000,0.000057000000000,0.000098700000000,0.000001670000000,-0.000112000000000,0.007070000000000,0.000382000000000,-0.008800000000000,-0.000055500000000,0.000402000000000,0.132000000000000,0.152000000000000,
69600.000000000000000,-0.000055900000000,-0.000055000000000,-0.000054600000000,-0.000000024000000,-0.000000253000000,0.000057000000000,0.000098700000000,0.000001740000000,-0.000112000000000,0.007110000000000,0.000381000000000,-0.008840000000000,-0.000059500000000,0.000384000000000,0.132000000000000,0.153000000000000,
69700.000000000000000,-0.000055900000000,-0.000055100000000,-0.000054600000000,-0.000000023800000,-0.000000245000000,0.000057000000000,0.000098700000000,0.000001720000000,-0.000112000000000,0.007160000000000,0.000381000000000,-0.008890000000000,-0.000058700000000,0.000390000000000,0.132000000000000,0.153000000000000,
69800.000000000000000,-0.000056100000000,-0.000055300000000,-0.000054800000000,-0.000000022700000,-0.000000218000000,0.000057000000000,0.000098700000000,0.000001540000000,-0.000112000000000,0.007200000000000,0.000383000000000,-0.008940000000000,-0.000054400000000,0.000407000000000,0.133000000000000,0.154000000000000,
69900.000000000000000,-0.000056500000000,-0.000055600000000,-0.000055100000000,-0.000000021000000,-0.000000150000000,0.000057000000000,0.000098800000000,0.000001230000000,-0.000113000000000,0.007250000000000,0.000386000000000,-0.009000000000000,-0.000045200000000,0.000448000000000,0.133000000000000,0.154000000000000,
70000.000000000000000,-0.000056800000000,-0.000055900000000,-0.000055500000000,-0.000000018300000,-0.000000055700000,0.000057000000000,0.000098800000000,0.000000866000000,-0.000113000000000,0.007290000000000,0.000389000000000,-0.009060000000000,-0.000032300000000,0.000504000000000,0.133000000000000,0.154000000000000,
70100.000000000000000,-0.000057300000000,-0.000056400000000,-0.000056000000000,-0.000000015400000,0.000000049200000,0.000057000000000,0.000098800000000,0.000000399000000,-0.000114000000000,0.007340000000000,0.000393000000000,-0.009110000000000,-0.000017500000000,0.000566000000000,0.134000000000000,0.155000000000000,
70200.000000000000000,-0.000057800000000,-0.000056900000000,-0.000056500000000,-0.000000012500000,0.000000172000000,0.000057100000000,0.000098800000000,-0.000000069300000,-0.000114000000000,0.007380000000000,0.000398000000000,-0.009180000000000,-0.000001160000000,0.000639000000000,0.134000000000000,0.155000000000000,
70300.000000000000000,-0.000058300000000,-0.000057300000000,-0.000057000000000,-0.000000009160000,0.000000284000000,0.000057100000000,0.000098900000000,-0.000000540000000,-0.000115000000000,0.007430000000000,0.000402000000000,-0.009240000000000,0.000014900000000,0.000705000000000,0.134000000000000,0.155000000000000,
70400.000000000000000,-0.000058800000000,-0.000057800000000,-0.000057500000000,-0.000000006380000,0.000000395000000,0.000057100000000,0.000098900000000,-0.000001030000000,-0.000115000000000,0.007470000000000,0.000406000000000,-0.009300000000000,0.000030100000000,0.000770000000000,0.135000000000000,0.156000000000000,
70500.000000000000000,-0.000059100000000,-0.000058200000000,-0.000057900000000,-0.000000004150000,0.000000486000000,0.000057100000000,0.000098900000000,-0.000001410000000,-0.000116000000000,0.007520000000000,0.000410000000000,-0.009360000000000,0.000042800000000,0.000824000000000,0.135000000000000,0.156000000000000,
70600.000000000000000,-0.000059400000000,-0.000058500000000,-0.000058200000000,-0.000000002230000,0.000000549000000,0.000057100000000,0.000098900000000,-0.000001660000000,-0.000116000000000,0.007560000000000,0.000412000000000,-0.009410000000000,0.000052000000000,0.000862000000000,0.135000000000000,0.157000000000000,
70700.000000000000000,-0.000059600000000,-0.000058600000000,-0.000058300000000,-0.000000001390000,0.000000583000000,0.000057100000000,0.000099000000000,-0.000001820000000,-0.000116000000000,0.007610000000000,0.000414000000000,-0.009460000000000,0.000057000000000,0.000882000000000,0.136000000000000,0.157000000000000,
70800.000000000000000,-0.000059600000000,-0.000058600000000,-0.000058300000000,-0.000000001610000,0.000000581000000,0.000057100000000,0.000099000000000,-0.000001820000000,-0.000116000000000,0.007650000000000,0.000414000000000,-0.009510000000000,0.000057200000000,0.000881000000000,0.136000000000000,0.157000000000000,
70900.000000000000000,-0.000059600000000,-0.000058600000000,-0.000058300000000,-0.000000002460000,0.000000555000000,0.000057200000000,0.000099000000000,-0.000001770000000,-0.000116000000000,0.007700000000000,0.000414000000000,-0.009560000000000,0.000053500000000,0.000867000000000,0.136000000000000,0.158000000000000,
71000.000000000000000,-0.000059500000000,-0.000058500000000,-0.000058100000000,-0.000000004160000,0.000000492000000,0.000057200000000,0.000099100000000,-0.000001610000000,-0.000116000000000,0.007750000000000,0.000412000000000,-0.009600000000000,0.000045200000000,0.000831000000000,0.137000000000000,0.158000000000000,
71100.000000000000000,-0.000059200000000,-0.000058200000000,-0.000057800000000,-0.000000006640000,0.000000400000000,0.000057200000000,0.000099100000000,-0.000001280000000,-0.000116000000000,0.007800000000000,0.000409000000000,-0.009640000000000,0.000032800000000,0.000778000000000,0.137000000000000,0.159000000000000,
71200.000000000000000,-0.000058800000000,-0.000057800000000,-0.000057400000000,-0.000000009440000,0.000000294000000,0.000057200000000,0.000099100000000,-0.000000888000000,-0.000115000000000,0.007840000000000,0.000405000000000,-0.009670000000000,0.000018100000000,0.000718000000000,0.137000000000000,0.159000000000000,
71300.000000000000000,-0.000058400000000,-0.000057400000000,-0.000057000000000,-0.000000012500000,0.000000175000000,0.000057200000000,0.000099100000000,-0.000000469000000,-0.000115000000000,0.007890000000000,0.000402000000000,-0.009700000000000,0.000001730000000,0.000649000000000,0.138000000000000,0.159000000000000,
71400.000000000000000,-0.000058000000000,-0.000057100000000,-0.000056500000000,-0.000000015600000,0.000000059500000,0.000057200000000,0.000099200000000,-0.000000043100000,-0.000115000000000,0.007940000000000,0.000398000000000,-0.009740000000000,-0.000014500000000,0.000583000000000,0.138000000000000,0.160000000000000,
71500.000000000000000,-0.000057700000000,-0.000056700000000,-0.000056200000000,-0.000000018400000,-0.000000052400000,0.000057300000000,0.000099200000000,0.000000294000000,-0.000114000000000,0.007990000000000,0.000395000000000,-0.009770000000000,-0.000029900000000,0.000519000000000,0.138000000000000,0.160000000000000,
71600.000000000000000,-0.000057400000000,-0.000056400000000,-0.000055900000000,-0.000000020700000,-0.000000144000000,0.000057300000000,0.000099200000000,0.000000626000000,-0.000114000000000,0.008030000000000,0.000392000000000,-0.009810000000000,-0.000042800000000,0.000467000000000,0.139000000000000,0.161000000000000,
71700.000000000000000,-0.000057200000000,-0.000056200000000,-0.000055600000000,-0.000000022400000,-0.000000210000000,0.000057300000000,0.000099200000000,0.000000875000000,-0.000114000000000,0.008090000000000,0.000390000000000,-0.009860000000000,-0.000052200000000,0.000429000000000,0.139000000000000,0.161000000000000,
71800.000000000000000,-0.000057200000000,-0.000056200000000,-0.000055500000000,-0.000000023500000,-0.000000251000000,0.000057300000000,0.000099300000000,0.000000966000000,-0.000114000000000,0.008130000000000,0.000389000000000,-0.009900000000000,-0.000057500000000,0.000407000000000,0.139000000000000,0.161000000000000,
71900.000000000000000,-0.000057200000000,-0.000056200000000,-0.000055500000000,-0.000000023400000,-0.000000252000000,0.000057300000000,0.000099300000000,0.000000981000000,-0.000114000000000,0.008180000000000,0.000389000000000,-0.009950000000000,-0.000057800000000,0.000407000000000,0.140000000000000,0.162000000000000,
72000.000000000000000,-0.000057300000000,-0.000056300000000,-0.000055700000000,-0.000000022600000,-0.000000230000000,0.000057300000000,0.000099300000000,0.000000829000000,-0.000114000000000,0.008230000000000,0.000390000000000,-0.010000000000000,-0.000054200000000,0.000421000000000,0.140000000000000,0.162000000000000,
72100.000000000000000,-0.000057600000000,-0.000056600000000,-0.000056000000000,-0.000000021200000,-0.000000174000000,0.000057400000000,0.000099400000000,0.000000575000000,-0.000114000000000,0.008280000000000,0.000393000000000,-0.010100000000000,-0.000046100000000,0.000455000000000,0.140000000000000,0.163000000000000,
72200.000000000000000,-0.000058000000000,-0.000056900000000,-0.000056300000000,-0.000000018800000,-0.000000089100000,0.000057400000000,0.000099400000000,0.000000233000000,-0.000115000000000,0.008330000000000,0.000396000000000,-0.010100000000000,-0.000033800000000,0.000505000000000,0.141000000000000,0.163000000000000,
72300.000000000000000,-0.000058400000000,-0.000057400000000,-0.000056800000000,-0.000000016100000,0.000000011900000,0.000057400000000,0.000099400000000,-0.000000212000000,-0.000115000000000,0.008370000000000,0.000400000000000,-0.010200000000000,-0.000018900000000,0.000565000000000,0.141000000000000,0.163000000000000,
72400.000000000000000,-0.000058900000000,-0.000057800000000,-0.000057300000000,-0.000000013500000,0.000000127000000,0.000057400000000,0.000099400000000,-0.000000650000000,-0.000115000000000,0.008420000000000,0.000404000000000,-0.010200000000000,-0.000002440000000,0.000632000000000,0.141000000000000,0.164000000000000,
72500.000000000000000,-0.000059400000000,-0.000058300000000,-0.000057800000000,-0.000000010400000,0.000000238000000,0.000057400000000,0.000099500000000,-0.000001130000000,-0.000116000000000,0.008470000000000,0.000408000000000,-0.010300000000000,0.000014100000000,0.000697000000000,0.142000000000000,0.164000000000000,
72600.000000000000000,-0.000059800000000,-0.000058700000000,-0.000058200000000,-0.000000007730000,0.000000345000000,0.000057400000000,0.000099500000000,-0.000001580000000,-0.000116000000000,0.008510000000000,0.000412000000000,-0.010400000000000,0.000029700000000,0.000760000000000,0.142000000000000,0.164000000000000,
72700.000000000000000,-0.000060200000000,-0.000059100000000,-0.000058600000000,-0.000000005620000,0.000000437000000,0.000057400000000,0.000099500000000,-0.000001960000000,-0.000117000000000,0.008560000000000,0.000416000000000,-0.010400000000000,0.000043200000000,0.000814000000000,0.142000000000000,0.165000000000000,
72800.000000000000000,-0.000060500000000,-0.000059400000000,-0.000058900000000,-0.000000003800000,0.000000501000000,0.000057500000000,0.000099500000000,-0.000002250000000,-0.000117000000000,0.008610000000000,0.000418000000000,-0.010500000000000,0.000053100000000,0.000852000000000,0.143000000000000,0.165000000000000,
72900.000000000000000,-0.000060600000000,-0.000059600000000,-0.000059100000000,-0.000000002910000,0.000000539000000,0.000057500000000,0.000099600000000,-0.000002380000000,-0.000117000000000,0.008660000000000,0.000420000000000,-0.010500000000000,0.000058800000000,0.000874000000000,0.143000000000000,0.166000000000000,
73000.000000000000000,-0.000060700000000,-0.000059600000000,-0.000059100000000,-0.000000003000000,0.000000540000000,0.000057500000000,0.000099600000000,-0.000002410000000,-0.000117000000000,0.008710000000000,0.000420000000000,-0.010600000000000,0.000059400000000,0.000876000000000,0.143000000000000,0.166000000000000,
73100.000000000000000,-0.000060700000000,-0.000059600000000,-0.000059100000000,-0.000000003810000,0.000000515000000,0.000057500000000,0.000099600000000,-0.000002370000000,-0.000117000000000,0.008760000000000,0.000420000000000,-0.010600000000000,0.000055900000000,0.000862000000000,0.144000000000000,0.166000000000000,
73200.000000000000000,-0.000060600000000,-0.000059400000000,-0.000058900000000,-0.000000005250000,0.000000460000000,0.000057500000000,0.000099600000000,-0.000002210000000,-0.000117000000000,0.008810000000000,0.000418000000000,-0.010700000000000,0.000047900000000,0.000830000000000,0.144000000000000,0.167000000000000,
73300.000000000000000,-0.000060300000000,-0.000059200000000,-0.000058600000000,-0.000000007530000,0.000000372000000,0.000057500000000,0.000099700000000,-0.000001910000000,-0.000117000000000,0.008860000000000,0.000416000000000,-0.010700000000000,0.000035500000000,0.000780000000000,0.144000000000000,0.167000000000000,
73400.000000000000000,-0.000060000000000,-0.000058800000000,-0.000058200000000,-0.000000010200000,0.000000270000000,0.000057500000000,0.000099700000000,-0.000001540000000,-0.000117000000000,0.008910000000000,0.000412000000000,-0.010800000000000,0.000020500000000,0.000722000000000,0.145000000000000,0.168000000000000,
73500.000000000000000,-0.000059600000000,-0.000058500000000,-0.000057800000000,-0.000000012900000,0.000000157000000,0.000057600000000,0.000099700000000,-0.000001130000000,-0.000116000000000,0.008960000000000,0.000409000000000,-0.010800000000000,0.000004110000000,0.000657000000000,0.145000000000000,0.168000000000000,
73600.000000000000000,-0.000059200000000,-0.000058100000000,-0.000057400000000,-0.000000015800000,0.000000045200000,0.000057600000000,0.000099800000000,-0.000000749000000,-0.000116000000000,0.009010000000000,0.000405000000000,-0.010800000000000,-0.000012500000000,0.000593000000000,0.145000000000000,0.168000000000000,
73700.000000000000000,-0.000058900000000,-0.000057800000000,-0.000057100000000,-0.000000018400000,-0.000000060400000,0.000057600000000,0.000099800000000,-0.000000402000000,-0.000116000000000,0.009060000000000,0.000402000000000,-0.010900000000000,-0.000028100000000,0.000533000000000,0.146000000000000,0.169000000000000,
73800.000000000000000,-0.000058600000000,-0.000057500000000,-0.000056800000000,-0.000000020500000,-0.000000150000000,0.000057600000000,0.000099800000000,-0.000000090200000,-0.000115000000000,0.009120000000000,0.000399000000000,-0.010900000000000,-0.000041200000000,0.000482000000000,0.146000000000000,0.169000000000000,
73900.000000000000000,-0.000058500000000,-0.000057300000000,-0.000056600000000,-0.000000022300000,-0.000000215000000,0.000057600000000,0.000099800000000,0.000000136000000,-0.000115000000000,0.009170000000000,0.000397000000000,-0.011000000000000,-0.000050900000000,0.000445000000000,0.146000000000000,0.170000000000000,
74000.000000000000000,-0.000058400000000,-0.000057200000000,-0.000056500000000,-0.000000023100000,-0.000000250000000,0.000057700000000,0.000099900000000,0.000000243000000,-0.000115000000000,0.009220000000000,0.000397000000000,-0.011000000000000,-0.000056100000000,0.000426000000000,0.147000000000000,0.170000000000000,
74100.000000000000000,-0.000058400000000,-0.000057300000000,-0.000056500000000,-0.000000023000000,-0.000000252000000,0.000057700000000,0.000099900000000,0.000000229000000,-0.000115000000000,0.009270000000000,0.000397000000000,-0.011100000000000,-0.000056300000000,0.000426000000000,0.147000000000000,0.170000000000000,
74200.000000000000000,-0.000058600000000,-0.000057400000000,-0.000056600000000,-0.000000022300000,-0.000000228000000,0.000057700000000,0.000099900000000,0.000000077900000,-0.000115000000000,0.009320000000000,0.000398000000000,-0.011100000000000,-0.000052400000000,0.000441000000000,0.147000000000000,0.171000000000000,
74300.000000000000000,-0.000058800000000,-0.000057700000000,-0.000056900000000,-0.000000020900000,-0.000000173000000,0.000057700000000,0.000100000000000,-0.000000166000000,-0.000116000000000,0.009380000000000,0.000400000000000,-0.011200000000000,-0.000043800000000,0.000474000000000,0.148000000000000,0.171000000000000,
74400.000000000000000,-0.000059200000000,-0.000058000000000,-0.000057300000000,-0.000000018600000,-0.000000088300000,0.000057700000000,0.000100000000000,-0.000000521000000,-0.000116000000000,0.009420000000000,0.000404000000000,-0.011300000000000,-0.000030900000000,0.000523000000000,0.148000000000000,0.171000000000000,
74500.000000000000000,-0.000059600000000,-0.000058500000000,-0.000057700000000,-0.000000016200000,0.000000012000000,0.000057700000000,0.000100000000000,-0.000000934000000,-0.000116000000000,0.009470000000000,0.000407000000000,-0.011300000000000,-0.000015400000000,0.000582000000000,0.148000000000000,0.172000000000000,
74600.000000000000000,-0.000060100000000,-0.000058900000000,-0.000058200000000,-0.000000013700000,0.000000123000000,0.000057700000000,0.000100000000000,-0.000001370000000,-0.000117000000000,0.009520000000000,0.000411000000000,-0.011400000000000,0.000001420000000,0.000647000000000,0.149000000000000,0.172000000000000,
74700.000000000000000,-0.000060600000000,-0.000059400000000,-0.000058700000000,-0.000000010800000,0.000000231000000,0.000057800000000,0.000100000000000,-0.000001840000000,-0.000117000000000,0.009580000000000,0.000416000000000,-0.011400000000000,0.000018400000000,0.000710000000000,0.149000000000000,0.173000000000000,
74800.000000000000000,-0.000061000000000,-0.000059800000000,-0.000059100000000,-0.000000008430000,0.000000332000000,0.000057800000000,0.000100000000000,-0.000002260000000,-0.000118000000000,0.009620000000000,0.000420000000000,-0.011500000000000,0.000034000000000,0.000769000000000,0.149000000000000,0.173000000000000,
74900.000000000000000,-0.000061400000000,-0.000060100000000,-0.000059500000000,-0.000000006490000,0.000000417000000,0.000057800000000,0.000100000000000,-0.000002620000000,-0.000118000000000,0.009680000000000,0.000423000000000,-0.011600000000000,0.000047200000000,0.000818000000000,0.150000000000000,0.173000000000000,
75000.000000000000000,-0.000061600000000,-0.000060400000000,-0.000059700000000,-0.000000004950000,0.000000476000000,0.000057800000000,0.000100000000000,-0.000002870000000,-0.000118000000000,0.009730000000000,0.000425000000000,-0.011600000000000,0.000056600000000,0.000853000000000,0.150000000000000,0.174000000000000,
75100.000000000000000,-0.000061800000000,-0.000060500000000,-0.000059900000000,-0.000000004300000,0.000000506000000,0.000057800000000,0.000100000000000,-0.000002980000000,-0.000119000000000,0.009780000000000,0.000426000000000,-0.011700000000000,0.000061400000000,0.000871000000000,0.150000000000000,0.174000000000000,
75200.000000000000000,-0.000061800000000,-0.000060600000000,-0.000059900000000,-0.000000004550000,0.000000501000000,0.000057800000000,0.000100000000000,-0.000003000000000,-0.000119000000000,0.009830000000000,0.000427000000000,-0.011700000000000,0.000061100000000,0.000868000000000,0.151000000000000,0.174000000000000,
75300.000000000000000,-0.000061800000000,-0.000060500000000,-0.000059800000000,-0.000000005420000,0.000000472000000,0.000057800000000,0.000100000000000,-0.000002940000000,-0.000119000000000,0.009890000000000,0.000426000000000,-0.011800000000000,0.000056600000000,0.000852000000000,0.151000000000000,0.175000000000000,
75400.000000000000000,-0.000061600000000,-0.000060300000000,-0.000059600000000,-0.000000006960000,0.000000410000000,0.000057900000000,0.000100000000000,-0.000002750000000,-0.000118000000000,0.009940000000000,0.000424000000000,-0.011800000000000,0.000047300000000,0.000817000000000,0.151000000000000,0.175000000000000,
75500.000000000000000,-0.000061300000000,-0.000060100000000,-0.000059300000000,-0.000000009240000,0.000000322000000,0.000057900000000,0.000100000000000,-0.000002440000000,-0.000118000000000,0.009990000000000,0.000421000000000,-0.011900000000000,0.000033900000000,0.000767000000000,0.152000000000000,0.176000000000000,
75600.000000000000000,-0.000061000000000,-0.000059700000000,-0.000059000000000,-0.000000011700000,0.000000219000000,0.000057900000000,0.000100000000000,-0.000002070000000,-0.000118000000000,0.010000000000000,0.000418000000000,-0.011900000000000,0.000018100000000,0.000708000000000,0.152000000000000,0.176000000000000,
75700.000000000000000,-0.000060600000000,-0.000059400000000,-0.000058600000000,-0.000000014300000,0.000000109000000,0.000057900000000,0.000100000000000,-0.000001680000000,-0.000118000000000,0.010100000000000,0.000415000000000,-0.012000000000000,0.000001190000000,0.000646000000000,0.152000000000000,0.176000000000000,
75800.000000000000000,-0.000060300000000,-0.000059000000000,-0.000058200000000,-0.000000017000000,0.000000002270000,0.000057900000000,0.000100000000000,-0.000001310000000,-0.000117000000000,0.010200000000000,0.000411000000000,-0.012000000000000,-0.000015600000000,0.000585000000000,0.153000000000000,0.177000000000000,
75900.000000000000000,-0.000060000000000,-0.000058700000000,-0.000057900000000,-0.000000019300000,-0.000000097100000,0.000057900000000,0.000100000000000,-0.000000992000000,-0.000117000000000,0.010200000000000,0.000408000000000,-0.012100000000000,-0.000030900000000,0.000528000000000,0.153000000000000,0.177000000000000,
76000.000000000000000,-0.000059800000000,-0.000058500000000,-0.000057600000000,-0.000000021100000,-0.000000177000000,0.000058000000000,0.000100000000000,-0.000000707000000,-0.000117000000000,0.010300000000000,0.000406000000000,-0.012100000000000,-0.000043300000000,0.000483000000000,0.153000000000000,0.178000000000000,
76100.000000000000000,-0.000059600000000,-0.000058300000000,-0.000057400000000,-0.000000022500000,-0.000000231000000,0.000058000000000,0.000100000000000,-0.000000526000000,-0.000117000000000,0.010300000000000,0.000404000000000,-0.012200000000000,-0.000051800000000,0.000453000000000,0.154000000000000,0.178000000000000,
76200.000000000000000,-0.000059600000000,-0.000058300000000,-0.000057400000000,-0.000000023000000,-0.000000254000000,0.000058000000000,0.000100000000000,-0.000000462000000,-0.000116000000000,0.010400000000000,0.000404000000000,-0.012200000000000,-0.000055400000000,0.000440000000000,0.154000000000000,0.178000000000000,
76300.000000000000000,-0.000059700000000,-0.000058400000000,-0.000057400000000,-0.000000022600000,-0.000000246000000,0.000058000000000,0.000100000000000,-0.000000525000000,-0.000117000000000,0.010400000000000,0.000405000000000,-0.012300000000000,-0.000054100000000,0.000446000000000,0.154000000000000,0.179000000000000,
76400.000000000000000,-0.000059900000000,-0.000058600000000,-0.000057600000000,-0.000000021800000,-0.000000212000000,0.000058000000000,0.000101000000000,-0.000000709000000,-0.000117000000000,0.010500000000000,0.000406000000000,-0.012300000000000,-0.000048300000000,0.000466000000000,0.155000000000000,0.179000000000000,
76500.000000000000000,-0.000060200000000,-0.000058900000000,-0.000057900000000,-0.000000020200000,-0.000000146000000,0.000058000000000,0.000101000000000,-0.000000993000000,-0.000117000000000,0.010500000000000,0.000409000000000,-0.012400000000000,-0.000037700000000,0.000505000000000,0.155000000000000,0.180000000000000,
76600.000000000000000,-0.000060500000000,-0.000059200000000,-0.000058300000000,-0.000000017900000,-0.000000056800000,0.000058100000000,0.000101000000000,-0.000001350000000,-0.000117000000000,0.010600000000000,0.000412000000000,-0.012500000000000,-0.000023300000000,0.000557000000000,0.155000000000000,0.180000000000000,
76700.000000000000000,-0.000061000000000,-0.000059600000000,-0.000058700000000,-0.000000015600000,0.000000044900000,0.000058100000000,0.000101000000000,-0.000001780000000,-0.000118000000000,0.010600000000000,0.000416000000000,-0.012500000000000,-0.000006880000000,0.000616000000000,0.156000000000000,0.180000000000000,
76800.000000000000000,-0.000061400000000,-0.000060100000000,-0.000059200000000,-0.000000013200000,0.000000152000000,0.000058100000000,0.000101000000000,-0.000002210000000,-0.000118000000000,0.010700000000000,0.000420000000000,-0.012600000000000,0.000010400000000,0.000679000000000,0.156000000000000,0.181000000000000,
76900.000000000000000,-0.000061900000000,-0.000060500000000,-0.000059700000000,-0.000000010600000,0.000000255000000,0.000058100000000,0.000101000000000,-0.000002640000000,-0.000119000000000,0.010700000000000,0.000424000000000,-0.012700000000000,0.000027300000000,0.000738000000000,0.156000000000000,0.181000000000000,
77000.000000000000000,-0.000062300000000,-0.000060900000000,-0.000060100000000,-0.000000008650000,0.000000347000000,0.000058100000000,0.000101000000000,-0.000003030000000,-0.000119000000000,0.010800000000000,0.000428000000000,-0.012700000000000,0.000042200000000,0.000791000000000,0.157000000000000,0.181000000000000,
77100.000000000000000,-0.000062600000000,-0.000061200000000,-0.000060400000000,-0.000000006990000,0.000000418000000,0.000058100000000,0.000101000000000,-0.000003340000000,-0.000120000000000,0.010900000000000,0.000430000000000,-0.012800000000000,0.000054000000000,0.000833000000000,0.157000000000000,0.182000000000000,
77200.000000000000000,-0.000062800000000,-0.000061400000000,-0.000060600000000,-0.000000005850000,0.000000463000000,0.000058100000000,0.000101000000000,-0.000003520000000,-0.000120000000000,0.010900000000000,0.000432000000000,-0.012900000000000,0.000061500000000,0.000859000000000,0.157000000000000,0.182000000000000,
77300.000000000000000,-0.000062800000000,-0.000061500000000,-0.000060700000000,-0.000000005700000,0.000000475000000,0.000058200000000,0.000101000000000,-0.000003580000000,-0.000120000000000,0.011000000000000,0.000433000000000,-0.012900000000000,0.000063800000000,0.000866000000000,0.158000000000000,0.183000000000000,
77400.000000000000000,-0.000062900000000,-0.000061500000000,-0.000060600000000,-0.000000006230000,0.000000459000000,0.000058200000000,0.000101000000000,-0.000003560000000,-0.000120000000000,0.011000000000000,0.000433000000000,-0.013000000000000,0.000061400000000,0.000858000000000,0.158000000000000,0.183000000000000,
77500.000000000000000,-0.000062800000000,-0.000061400000000,-0.000060500000000,-0.000000007320000,0.000000416000000,0.000058200000000,0.000101000000000,-0.000003450000000,-0.000120000000000,0.011100000000000,0.000431000000000,-0.013000000000000,0.000054400000000,0.000833000000000,0.158000000000000,0.183000000000000,
77600.000000000000000,-0.000062600000000,-0.000061200000000,-0.000060300000000,-0.000000009190000,0.000000342000000,0.000058200000000,0.000101000000000,-0.000003200000000,-0.000120000000000,0.011100000000000,0.000429000000000,-0.013100000000000,0.000042600000000,0.000791000000000,0.159000000000000,0.184000000000000,
77700.000000000000000,-0.000062200000000,-0.000060900000000,-0.000059900000000,-0.000000011400000,0.000000248000000,0.000058200000000,0.000101000000000,-0.000002860000000,-0.000119000000000,0.011200000000000,0.000426000000000,-0.013100000000000,0.000027500000000,0.000738000000000,0.159000000000000,0.184000000000000,
77800.000000000000000,-0.000061900000000,-0.000060500000000,-0.000059600000000,-0.000000013700000,0.000000144000000,0.000058200000000,0.000101000000000,-0.000002490000000,-0.000119000000000,0.011200000000000,0.000423000000000,-0.013200000000000,0.000010700000000,0.000679000000000,0.159000000000000,0.185000000000000,
77900.000000000000000,-0.000061600000000,-0.000060200000000,-0.000059200000000,-0.000000016300000,0.000000038900000,0.000058300000000,0.000101000000000,-0.000002130000000,-0.000119000000000,0.011300000000000,0.000420000000000,-0.013200000000000,-0.000006510000000,0.000619000000000,0.160000000000000,0.185000000000000,
78000.000000000000000,-0.000061300000000,-0.000059900000000,-0.000058900000000,-0.000000018600000,-0.000000062500000,0.000058300000000,0.000101000000000,-0.000001800000000,-0.000118000000000,0.011400000000000,0.000417000000000,-0.013200000000000,-0.000023000000000,0.000562000000000,0.160000000000000,0.185000000000000,
78100.000000000000000,-0.000061000000000,-0.000059600000000,-0.000058600000000,-0.000000020500000,-0.000000148000000,0.000058300000000,0.000101000000000,-0.000001500000000,-0.000118000000000,0.011400000000000,0.000414000000000,-0.013300000000000,-0.000037000000000,0.000513000000000,0.160000000000000,0.186000000000000,
78200.000000000000000,-0.000060800000000,-0.000059400000000,-0.000058300000000,-0.000000022000000,-0.000000211000000,0.000058300000000,0.000101000000000,-0.000001280000000,-0.000118000000000,0.011500000000000,0.000412000000000,-0.013300000000000,-0.000047400000000,0.000478000000000,0.161000000000000,0.186000000000000,
78300.000000000000000,-0.000060800000000,-0.000059300000000,-0.000058200000000,-0.000000022900000,-0.000000247000000,0.000058300000000,0.000101000000000,-0.000001170000000,-0.000118000000000,0.011500000000000,0.000411000000000,-0.013400000000000,-0.000053200000000,0.000458000000000,0.161000000000000,0.187000000000000,
78400.000000000000000,-0.000060800000000,-0.000059400000000,-0.000058300000000,-0.000000022700000,-0.000000250000000,0.000058300000000,0.000101000000000,-0.000001180000000,-0.000118000000000,0.011600000000000,0.000411000000000,-0.013500000000000,-0.000053700000000,0.000457000000000,0.161000000000000,0.187000000000000,
78500.000000000000000,-0.000061000000000,-0.000059500000000,-0.000058400000000,-0.000000022200000,-0.000000227000000,0.000058400000000,0.000101000000000,-0.000001320000000,-0.000118000000000,0.011700000000000,0.000413000000000,-0.013500000000000,-0.000049600000000,0.000471000000000,0.162000000000000,0.187000000000000,
78600.000000000000000,-0.000061200000000,-0.000059800000000,-0.000058700000000,-0.000000020900000,-0.000000175000000,0.000058400000000,0.000101000000000,-0.000001560000000,-0.000118000000000,0.011700000000000,0.000415000000000,-0.013600000000000,-0.000040700000000,0.000502000000000,0.162000000000000,0.188000000000000,
78700.000000000000000,-0.000061600000000,-0.000060100000000,-0.000059000000000,-0.000000019000000,-0.000000095800000,0.000058400000000,0.000101000000000,-0.000001890000000,-0.000119000000000,0.011800000000000,0.000418000000000,-0.013700000000000,-0.000027200000000,0.000548000000000,0.162000000000000,0.188000000000000,
78800.000000000000000,-0.000062000000000,-0.000060500000000,-0.000059400000000,-0.000000016800000,0.000000000085500,0.000058400000000,0.000101000000000,-0.000002280000000,-0.000119000000000,0.011800000000000,0.000421000000000,-0.013700000000000,-0.000011000000000,0.000604000000000,0.163000000000000,0.189000000000000,
78900.000000000000000,-0.000062400000000,-0.000060900000000,-0.000059900000000,-0.000000014600000,0.000000104000000,0.000058400000000,0.000101000000000,-0.000002700000000,-0.000120000000000,0.011900000000000,0.000425000000000,-0.013800000000000,0.000006520000000,0.000664000000000,0.163000000000000,0.189000000000000,
79000.000000000000000,-0.000062800000000,-0.000061300000000,-0.000060300000000,-0.000000012100000,0.000000206000000,0.000058400000000,0.000101000000000,-0.000003130000000,-0.000120000000000,0.011900000000000,0.000429000000000,-0.013900000000000,0.000024100000000,0.000723000000000,0.163000000000000,0.189000000000000,
79100.000000000000000,-0.000063200000000,-0.000061700000000,-0.000060700000000,-0.000000010100000,0.000000301000000,0.000058400000000,0.000101000000000,-0.000003530000000,-0.000120000000000,0.012000000000000,0.000433000000000,-0.013900000000000,0.000040000000000,0.000777000000000,0.164000000000000,0.190000000000000,
79200.000000000000000,-0.000063600000000,-0.000062100000000,-0.000061100000000,-0.000000008600000,0.000000377000000,0.000058500000000,0.000101000000000,-0.000003860000000,-0.000121000000000,0.012000000000000,0.000436000000000,-0.014000000000000,0.000053100000000,0.000821000000000,0.164000000000000,0.190000000000000,
79300.000000000000000,-0.000063800000000,-0.000062300000000,-0.000061300000000,-0.000000007320000,0.000000428000000,0.000058500000000,0.000101000000000,-0.000004060000000,-0.000121000000000,0.012100000000000,0.000438000000000,-0.014100000000000,0.000062100000000,0.000851000000000,0.164000000000000,0.190000000000000,
79400.000000000000000,-0.000063900000000,-0.000062400000000,-0.000061400000000,-0.000000006930000,0.000000449000000,0.000058500000000,0.000101000000000,-0.000004150000000,-0.000121000000000,0.012200000000000,0.000439000000000,-0.014100000000000,0.000065900000000,0.000863000000000,0.165000000000000,0.191000000000000,
79500.000000000000000,-0.000063900000000,-0.000062400000000,-0.000061400000000,-0.000000007300000,0.000000439000000,0.000058500000000,0.000101000000000,-0.000004160000000,-0.000121000000000,0.012200000000000,0.000439000000000,-0.014200000000000,0.000064500000000,0.000857000000000,0.165000000000000,0.191000000000000,
79600.000000000000000,-0.000063900000000,-0.000062300000000,-0.000061300000000,-0.000000008180000,0.000000404000000,0.000058500000000,0.000101000000000,-0.000004070000000,-0.000121000000000,0.012300000000000,0.000438000000000,-0.014200000000000,0.000058600000000,0.000838000000000,0.165000000000000,0.192000000000000,
79700.000000000000000,-0.000063700000000,-0.000062200000000,-0.000061100000000,-0.000000009770000,0.000000338000000,0.000058500000000,0.000101000000000,-0.000003860000000,-0.000121000000000,0.012300000000000,0.000436000000000,-0.014300000000000,0.000047500000000,0.000801000000000,0.166000000000000,0.192000000000000,
79800.000000000000000,-0.000063400000000,-0.000061900000000,-0.000060800000000,-0.000000011900000,0.000000250000000,0.000058500000000,0.000101000000000,-0.000003540000000,-0.000121000000000,0.012400000000000,0.000433000000000,-0.014300000000000,0.000032600000000,0.000751000000000,0.166000000000000,0.192000000000000,
79900.000000000000000,-0.000063100000000,-0.000061500000000,-0.000060400000000,-0.000000014000000,0.000000150000000,0.000058600000000,0.000101000000000,-0.000003180000000,-0.000120000000000,0.012500000000000,0.000430000000000,-0.014400000000000,0.000015800000000,0.000694000000000,0.166000000000000,0.193000000000000,
80000.000000000000000,-0.000062800000000,-0.000061200000000,-0.000060100000000,-0.000000016300000,0.000000046500000,0.000058600000000,0.000101000000000,-0.000002830000000,-0.000120000000000,0.012500000000000,0.000427000000000,-0.014400000000000,-0.000001900000000,0.000636000000000,0.167000000000000,0.193000000000000,
80100.000000000000000,-0.000062500000000,-0.000060900000000,-0.000059700000000,-0.000000018700000,-0.000000052400000,0.000058600000000,0.000102000000000,-0.000002500000000,-0.000120000000000,0.012600000000000,0.000424000000000,-0.014500000000000,-0.000018900000000,0.000580000000000,0.167000000000000,0.194000000000000,
80200.000000000000000,-0.000062200000000,-0.000060700000000,-0.000059400000000,-0.000000020400000,-0.000000140000000,0.000058600000000,0.000102000000000,-0.000002210000000,-0.000119000000000,0.012600000000000,0.000421000000000,-0.014500000000000,-0.000033700000000,0.000531000000000,0.167000000000000,0.194000000000000,
80300.000000000000000,-0.000062000000000,-0.000060500000000,-0.000059200000000,-0.000000021900000,-0.000000204000000,0.000058600000000,0.000102000000000,-0.000001970000000,-0.000119000000000,0.012700000000000,0.000419000000000,-0.014600000000000,-0.000044900000000,0.000495000000000,0.168000000000000,0.194000000000000,
80400.000000000000000,-0.000061900000000,-0.000060400000000,-0.000059100000000,-0.000000022800000,-0.000000243000000,0.000058600000000,0.000102000000000,-0.000001860000000,-0.000119000000000,0.012800000000000,0.000418000000000,-0.014700000000000,-0.000051500000000,0.000473000000000,0.168000000000000,0.195000000000000,
80500.000000000000000,-0.000061900000000,-0.000060400000000,-0.000059100000000,-0.000000022700000,-0.000000250000000,0.000058700000000,0.000102000000000,-0.000001850000000,-0.000119000000000,0.012800000000000,0.000418000000000,-0.014700000000000,-0.000052600000000,0.000470000000000,0.168000000000000,0.195000000000000,
80600.000000000000000,-0.000062100000000,-0.000060500000000,-0.000059200000000,-0.000000022300000,-0.000000230000000,0.000058700000000,0.000102000000000,-0.000001980000000,-0.000119000000000,0.012900000000000,0.000419000000000,-0.014800000000000,-0.000049000000000,0.000482000000000,0.169000000000000,0.196000000000000,
80700.000000000000000,-0.000062300000000,-0.000060700000000,-0.000059500000000,-0.000000021200000,-0.000000183000000,0.000058700000000,0.000102000000000,-0.000002200000000,-0.000120000000000,0.012900000000000,0.000422000000000,-0.014900000000000,-0.000040500000000,0.000509000000000,0.169000000000000,0.196000000000000,
80800.000000000000000,-0.000062700000000,-0.000061100000000,-0.000059800000000,-0.000000019400000,-0.000000107000000,0.000058700000000,0.000102000000000,-0.000002510000000,-0.000120000000000,0.013000000000000,0.000424000000000,-0.014900000000000,-0.000027000000000,0.000554000000000,0.169000000000000,0.196000000000000,
80900.000000000000000,-0.000063000000000,-0.000061400000000,-0.000060200000000,-0.000000017400000,-0.000000013200000,0.000058700000000,0.000102000000000,-0.000002890000000,-0.000120000000000,0.013100000000000,0.000428000000000,-0.015000000000000,-0.000010500000000,0.000608000000000,0.170000000000000,0.197000000000000,
81000.000000000000000,-0.000063500000000,-0.000061800000000,-0.000060600000000,-0.000000015300000,0.000000088900000,0.000058700000000,0.000102000000000,-0.000003300000000,-0.000121000000000,0.013100000000000,0.000432000000000,-0.015100000000000,0.000007430000000,0.000666000000000,0.170000000000000,0.197000000000000,
81100.000000000000000,-0.000063900000000,-0.000062300000000,-0.000061100000000,-0.000000013000000,0.000000189000000,0.000058800000000,0.000102000000000,-0.000003730000000,-0.000121000000000,0.013200000000000,0.000436000000000,-0.015100000000000,0.000025400000000,0.000724000000000,0.170000000000000,0.197000000000000,
81200.000000000000000,-0.000064300000000,-0.000062700000000,-0.000061500000000,-0.000000011100000,0.000000280000000,0.000058800000000,0.000102000000000,-0.000004120000000,-0.000122000000000,0.013200000000000,0.000439000000000,-0.015200000000000,0.000041600000000,0.000776000000000,0.171000000000000,0.198000000000000,
81300.000000000000000,-0.000064600000000,-0.000063000000000,-0.000061800000000,-0.000000009680000,0.000000356000000,0.000058800000000,0.000102000000000,-0.000004440000000,-0.000122000000000,0.013300000000000,0.000442000000000,-0.015300000000000,0.000055100000000,0.000819000000000,0.171000000000000,0.198000000000000,
81400.000000000000000,-0.000064800000000,-0.000063200000000,-0.000062100000000,-0.000000008440000,0.000000407000000,0.000058800000000,0.000102000000000,-0.000004640000000,-0.000122000000000,0.013400000000000,0.000444000000000,-0.015300000000000,0.000064400000000,0.000849000000000,0.171000000000000,0.198000000000000,
81500.000000000000000,-0.000065000000000,-0.000063300000000,-0.000062200000000,-0.000000008100000,0.000000426000000,0.000058800000000,0.000102000000000,-0.000004720000000,-0.000122000000000,0.013400000000000,0.000445000000000,-0.015400000000000,0.000068100000000,0.000860000000000,0.172000000000000,0.199000000000000,
81600.000000000000000,-0.000065000000000,-0.000063300000000,-0.000062200000000,-0.000000008490000,0.000000417000000,0.000058800000000,0.000102000000000,-0.000004730000000,-0.000122000000000,0.013500000000000,0.000445000000000,-0.015500000000000,0.000066700000000,0.000855000000000,0.172000000000000,0.199000000000000,
81700.000000000000000,-0.000064900000000,-0.000063300000000,-0.000062100000000,-0.000000009300000,0.000000382000000,0.000058800000000,0.000102000000000,-0.000004650000000,-0.000122000000000,0.013500000000000,0.000444000000000,-0.015500000000000,0.000060600000000,0.000836000000000,0.172000000000000,0.200000000000000,
81800.000000000000000,-0.000064800000000,-0.000063100000000,-0.000061900000000,-0.000000010800000,0.000000316000000,0.000058900000000,0.000102000000000,-0.000004440000000,-0.000122000000000,0.013600000000000,0.000442000000000,-0.015600000000000,0.000049100000000,0.000798000000000,0.173000000000000,0.200000000000000,
81900.000000000000000,-0.000064500000000,-0.000062800000000,-0.000061600000000,-0.000000012700000,0.000000230000000,0.000058900000000,0.000102000000000,-0.000004130000000,-0.000122000000000,0.013700000000000,0.000439000000000,-0.015600000000000,0.000033900000000,0.000750000000000,0.173000000000000,0.200000000000000,
82000.000000000000000,-0.000064200000000,-0.000062500000000,-0.000061200000000,-0.000000014800000,0.000000133000000,0.000058900000000,0.000102000000000,-0.000003770000000,-0.000122000000000,0.013700000000000,0.000436000000000,-0.015700000000000,0.000016600000000,0.000695000000000,0.173000000000000,0.201000000000000,
82100.000000000000000,-0.000063800000000,-0.000062200000000,-0.000060900000000,-0.000000017000000,0.000000033200000,0.000058900000000,0.000102000000000,-0.000003430000000,-0.000121000000000,0.013800000000000,0.000433000000000,-0.015700000000000,-0.000001400000000,0.000639000000000,0.174000000000000,0.201000000000000,
82200.000000000000000,-0.000063600000000,-0.000061900000000,-0.000060500000000,-0.000000019100000,-0.000000065200000,0.000058900000000,0.000102000000000,-0.000003100000000,-0.000121000000000,0.013800000000000,0.000430000000000,-0.015800000000000,-0.000018900000000,0.000584000000000,0.174000000000000,0.202000000000000,
82300.000000000000000,-0.000063300000000,-0.000061600000000,-0.000060200000000,-0.000000020700000,-0.000000149000000,0.000058900000000,0.000102000000000,-0.000002830000000,-0.000121000000000,0.013900000000000,0.000428000000000,-0.015900000000000,-0.000033600000000,0.000537000000000,0.174000000000000,0.202000000000000,
82400.000000000000000,-0.000063100000000,-0.000061400000000,-0.000060000000000,-0.000000022100000,-0.000000209000000,0.000059000000000,0.000102000000000,-0.000002610000000,-0.000121000000000,0.014000000000000,0.000426000000000,-0.015900000000000,-0.000044700000000,0.000503000000000,0.175000000000000,0.202000000000000,
82500.000000000000000,-0.000063100000000,-0.000061300000000,-0.000059900000000,-0.000000022800000,-0.000000245000000,0.000059000000000,0.000102000000000,-0.000002510000000,-0.000120000000000,0.014000000000000,0.000425000000000,-0.016000000000000,-0.000050900000000,0.000484000000000,0.175000000000000,0.203000000000000,
82600.000000000000000,-0.000063100000000,-0.000061400000000,-0.000060000000000,-0.000000022700000,-0.000000248000000,0.000059000000000,0.000102000000000,-0.000002520000000,-0.000121000000000,0.014100000000000,0.000425000000000,-0.016000000000000,-0.000051400000000,0.000482000000000,0.175000000000000,0.203000000000000,
82700.000000000000000,-0.000063300000000,-0.000061500000000,-0.000060100000000,-0.000000022200000,-0.000000224000000,0.000059000000000,0.000102000000000,-0.000002660000000,-0.000121000000000,0.014200000000000,0.000427000000000,-0.016100000000000,-0.000046900000000,0.000497000000000,0.176000000000000,0.204000000000000,
82800.000000000000000,-0.000063500000000,-0.000061800000000,-0.000060400000000,-0.000000021100000,-0.000000171000000,0.000059000000000,0.000102000000000,-0.000002900000000,-0.000121000000000,0.014200000000000,0.000429000000000,-0.016200000000000,-0.000037200000000,0.000527000000000,0.176000000000000,0.204000000000000,
82900.000000000000000,-0.000063800000000,-0.000062100000000,-0.000060700000000,-0.000000019300000,-0.000000093300000,0.000059000000000,0.000102000000000,-0.000003210000000,-0.000121000000000,0.014300000000000,0.000432000000000,-0.016200000000000,-0.000022800000000,0.000572000000000,0.176000000000000,0.204000000000000,
83000.000000000000000,-0.000064200000000,-0.000062500000000,-0.000061100000000,-0.000000017500000,-0.000000002050000,0.000059000000000,0.000102000000000,-0.000003590000000,-0.000122000000000,0.014400000000000,0.000435000000000,-0.016300000000000,-0.000005820000000,0.000625000000000,0.177000000000000,0.205000000000000,
83100.000000000000000,-0.000064600000000,-0.000062900000000,-0.000061500000000,-0.000000015500000,0.000000097500000,0.000059100000000,0.000102000000000,-0.000004000000000,-0.000122000000000,0.014400000000000,0.000439000000000,-0.016400000000000,0.000012500000000,0.000681000000000,0.177000000000000,0.205000000000000,
83200.000000000000000,-0.000065100000000,-0.000063300000000,-0.000062000000000,-0.000000013300000,0.000000195000000,0.000059100000000,0.000102000000000,-0.000004410000000,-0.000123000000000,0.014500000000000,0.000443000000000,-0.016500000000000,0.000030700000000,0.000737000000000,0.177000000000000,0.205000000000000,
83300.000000000000000,-0.000065400000000,-0.000063700000000,-0.000062300000000,-0.000000011700000,0.000000282000000,0.000059100000000,0.000102000000000,-0.000004790000000,-0.000123000000000,0.014500000000000,0.000446000000000,-0.016500000000000,0.000046900000000,0.000787000000000,0.178000000000000,0.206000000000000,
83400.000000000000000,-0.000065700000000,-0.000063900000000,-0.000062700000000,-0.000000010400000,0.000000353000000,0.000059100000000,0.000102000000000,-0.000005070000000,-0.000123000000000,0.014600000000000,0.000449000000000,-0.016600000000000,0.000059900000000,0.000827000000000,0.178000000000000,0.206000000000000,
83500.000000000000000,-0.000065900000000,-0.000064100000000,-0.000062800000000,-0.000000009320000,0.000000395000000,0.000059100000000,0.000102000000000,-0.000005250000000,-0.000124000000000,0.014700000000000,0.000451000000000,-0.016700000000000,0.000068200000000,0.000852000000000,0.178000000000000,0.207000000000000,
83600.000000000000000,-0.000066000000000,-0.000064200000000,-0.000062900000000,-0.000000009250000,0.000000408000000,0.000059100000000,0.000102000000000,-0.000005310000000,-0.000124000000000,0.014700000000000,0.000451000000000,-0.016800000000000,0.000070800000000,0.000859000000000,0.179000000000000,0.207000000000000,
83700.000000000000000,-0.000066000000000,-0.000064200000000,-0.000062900000000,-0.000000009750000,0.000000393000000,0.000059100000000,0.000102000000000,-0.000005300000000,-0.000124000000000,0.014800000000000,0.000451000000000,-0.016800000000000,0.000068000000000,0.000851000000000,0.179000000000000,0.207000000000000,
83800.000000000000000,-0.000065900000000,-0.000064100000000,-0.000062800000000,-0.000000010700000,0.000000351000000,0.000059200000000,0.000103000000000,-0.000005190000000,-0.000124000000000,0.014900000000000,0.000450000000000,-0.016900000000000,0.000060300000000,0.000827000000000,0.179000000000000,0.208000000000000,
83900.000000000000000,-0.000065700000000,-0.000063900000000,-0.000062600000000,-0.000000012300000,0.000000280000000,0.000059200000000,0.000103000000000,-0.000004940000000,-0.000123000000000,0.014900000000000,0.000448000000000,-0.016900000000000,0.000047300000000,0.000787000000000,0.180000000000000,0.208000000000000,
84000.000000000000000,-0.000065400000000,-0.000063600000000,-0.000062200000000,-0.000000014100000,0.000000190000000,0.000059200000000,0.000103000000000,-0.000004620000000,-0.000123000000000,0.015000000000000,0.000445000000000,-0.017000000000000,0.000030800000000,0.000737000000000,0.180000000000000,0.209000000000000,
84100.000000000000000,-0.000065100000000,-0.000063300000000,-0.000061900000000,-0.000000016000000,0.000000094300000,0.000059200000000,0.000103000000000,-0.000004270000000,-0.000123000000000,0.015100000000000,0.000442000000000,-0.017000000000000,0.000012900000000,0.000683000000000,0.180000000000000,0.209000000000000,
84200.000000000000000,-0.000064900000000,-0.000063000000000,-0.000061600000000,-0.000000018100000,-0.000000007080000,0.000059200000000,0.000103000000000,-0.000003950000000,-0.000122000000000,0.015100000000000,0.000439000000000,-0.017100000000000,-0.000005680000000,0.000626000000000,0.181000000000000,0.209000000000000,
84300.000000000000000,-0.000064600000000,-0.000062700000000,-0.000061200000000,-0.000000020000000,-0.000000096900000,0.000059200000000,0.000103000000000,-0.000003650000000,-0.000122000000000,0.015200000000000,0.000436000000000,-0.017200000000000,-0.000022600000000,0.000576000000000,0.181000000000000,0.210000000000000,
84400.000000000000000,-0.000064300000000,-0.000062500000000,-0.000061000000000,-0.000000021400000,-0.000000172000000,0.000059200000000,0.000103000000000,-0.000003390000000,-0.000122000000000,0.015200000000000,0.000434000000000,-0.017200000000000,-0.000036500000000,0.000535000000000,0.181000000000000,0.210000000000000,
84500.000000000000000,-0.000064200000000,-0.000062300000000,-0.000060800000000,-0.000000022600000,-0.000000224000000,0.000059300000000,0.000103000000000,-0.000003200000000,-0.000122000000000,0.015300000000000,0.000432000000000,-0.017300000000000,-0.000046300000000,0.000506000000000,0.182000000000000,0.211000000000000,
84600.000000000000000,-0.000064200000000,-0.000062300000000,-0.000060700000000,-0.000000023000000,-0.000000247000000,0.000059300000000,0.000103000000000,-0.000003140000000,-0.000122000000000,0.015400000000000,0.000432000000000,-0.017300000000000,-0.000050600000000,0.000493000000000,0.182000000000000,0.211000000000000,
84700.000000000000000,-0.000064300000000,-0.000062400000000,-0.000060800000000,-0.000000022700000,-0.000000242000000,0.000059300000000,0.000103000000000,-0.000003210000000,-0.000122000000000,0.015400000000000,0.000432000000000,-0.017400000000000,-0.000049400000000,0.000497000000000,0.182000000000000,0.211000000000000,
84800.000000000000000,-0.000064500000000,-0.000062600000000,-0.000061000000000,-0.000000022100000,-0.000000208000000,0.000059300000000,0.000103000000000,-0.000003390000000,-0.000122000000000,0.015500000000000,0.000434000000000,-0.017500000000000,-0.000042800000000,0.000517000000000,0.183000000000000,0.212000000000000,
84900.000000000000000,-0.000064700000000,-0.000062800000000,-0.000061300000000,-0.000000020700000,-0.000000144000000,0.000059300000000,0.000103000000000,-0.000003640000000,-0.000122000000000,0.015600000000000,0.000436000000000,-0.017600000000000,-0.000030700000000,0.000553000000000,0.183000000000000,0.212000000000000,
85000.000000000000000,-0.000065100000000,-0.000063200000000,-0.000061600000000,-0.000000018900000,-0.000000061400000,0.000059400000000,0.000103000000000,-0.000003970000000,-0.000123000000000,0.015600000000000,0.000439000000000,-0.017600000000000,-0.000014700000000,0.000601000000000,0.183000000000000,0.212000000000000,
85100.000000000000000,-0.000065500000000,-0.000063600000000,-0.000062000000000,-0.000000017200000,0.000000032800000,0.000059400000000,0.000103000000000,-0.000004370000000,-0.000123000000000,0.015700000000000,0.000443000000000,-0.017700000000000,0.000003400000000,0.000654000000000,0.184000000000000,0.213000000000000,
85200.000000000000000,-0.000065900000000,-0.000064000000000,-0.000062500000000,-0.000000015100000,0.000000129000000,0.000059400000000,0.000103000000000,-0.000004780000000,-0.000124000000000,0.015800000000000,0.000447000000000,-0.017800000000000,0.000022300000000,0.000709000000000,0.184000000000000,0.213000000000000,
85300.000000000000000,-0.000066300000000,-0.000064400000000,-0.000062900000000,-0.000000013300000,0.000000223000000,0.000059400000000,0.000103000000000,-0.000005180000000,-0.000124000000000,0.015800000000000,0.000451000000000,-0.017900000000000,0.000040300000000,0.000762000000000,0.184000000000000,0.214000000000000,
85400.000000000000000,-0.000066600000000,-0.000064700000000,-0.000063200000000,-0.000000012000000,0.000000305000000,0.000059400000000,0.000103000000000,-0.000005500000000,-0.000124000000000,0.015900000000000,0.000454000000000,-0.017900000000000,0.000055700000000,0.000808000000000,0.185000000000000,0.214000000000000,
85500.000000000000000,-0.000066900000000,-0.000064900000000,-0.000063500000000,-0.000000010700000,0.000000361000000,0.000059400000000,0.000103000000000,-0.000005720000000,-0.000125000000000,0.016000000000000,0.000456000000000,-0.018000000000000,0.000066900000000,0.000840000000000,0.185000000000000,0.214000000000000,
85600.000000000000000,-0.000067000000000,-0.000065100000000,-0.000063600000000,-0.000000010100000,0.000000389000000,0.000059400000000,0.000103000000000,-0.000005850000000,-0.000125000000000,0.016000000000000,0.000457000000000,-0.018100000000000,0.000072600000000,0.000857000000000,0.185000000000000,0.215000000000000,
85700.000000000000000,-0.000067100000000,-0.000065100000000,-0.000063700000000,-0.000000010400000,0.000000386000000,0.000059500000000,0.000103000000000,-0.000005880000000,-0.000125000000000,0.016100000000000,0.000457000000000,-0.018200000000000,0.000072300000000,0.000854000000000,0.186000000000000,0.215000000000000,
85800.000000000000000,-0.000067100000000,-0.000065100000000,-0.000063600000000,-0.000000011000000,0.000000360000000,0.000059500000000,0.000103000000000,-0.000005830000000,-0.000125000000000,0.016200000000000,0.000457000000000,-0.018200000000000,0.000067200000000,0.000840000000000,0.186000000000000,0.216000000000000,
85900.000000000000000,-0.000066900000000,-0.000064900000000,-0.000063400000000,-0.000000012300000,0.000000302000000,0.000059500000000,0.000103000000000,-0.000005650000000,-0.000125000000000,0.016200000000000,0.000455000000000,-0.018300000000000,0.000056300000000,0.000808000000000,0.186000000000000,0.216000000000000,
86000.000000000000000,-0.000066600000000,-0.000064700000000,-0.000063100000000,-0.000000014000000,0.000000224000000,0.000059500000000,0.000103000000000,-0.000005350000000,-0.000124000000000,0.016300000000000,0.000452000000000,-0.018400000000000,0.000041100000000,0.000765000000000,0.187000000000000,0.216000000000000,
86100.000000000000000,-0.000066300000000,-0.000064400000000,-0.000062800000000,-0.000000015600000,0.000000130000000,0.000059500000000,0.000103000000000,-0.000005020000000,-0.000124000000000,0.016400000000000,0.000449000000000,-0.018400000000000,0.000023300000000,0.000712000000000,0.187000000000000,0.217000000000000,
86200.000000000000000,-0.000066100000000,-0.000064100000000,-0.000062500000000,-0.000000017700000,0.000000034800000,0.000059500000000,0.000103000000000,-0.000004700000000,-0.000124000000000,0.016500000000000,0.000446000000000,-0.018500000000000,0.000004550000000,0.000659000000000,0.187000000000000,0.217000000000000,
86300.000000000000000,-0.000065800000000,-0.000063800000000,-0.000062200000000,-0.000000019500000,-0.000000061300000,0.000059600000000,0.000103000000000,-0.000004390000000,-0.000124000000000,0.016500000000000,0.000444000000000,-0.018500000000000,-0.000013800000000,0.000605000000000,0.188000000000000,0.218000000000000,
86400.000000000000000,-0.000065500000000,-0.000063500000000,-0.000061900000000,-0.000000020900000,-0.000000143000000,0.000059600000000,0.000103000000000,-0.000004110000000,-0.000123000000000,0.016600000000000,0.000441000000000,-0.018600000000000,-0.000029600000000,0.000560000000000,0.188000000000000,0.218000000000000,
86500.000000000000000,-0.000065300000000,-0.000063300000000,-0.000061700000000,-0.000000022200000,-0.000000204000000,0.000059600000000,0.000103000000000,-0.000003890000000,-0.000123000000000,0.016700000000000,0.000439000000000,-0.018700000000000,-0.000041500000000,0.000526000000000,0.188000000000000,0.218000000000000,
86600.000000000000000,-0.000065300000000,-0.000063300000000,-0.000061600000000,-0.000000023000000,-0.000000237000000,0.000059600000000,0.000103000000000,-0.000003780000000,-0.000123000000000,0.016700000000000,0.000438000000000,-0.018700000000000,-0.000048100000000,0.000508000000000,0.189000000000000,0.219000000000000,
86700.000000000000000,-0.000065300000000,-0.000063300000000,-0.000061600000000,-0.000000022800000,-0.000000242000000,0.000059600000000,0.000103000000000,-0.000003800000000,-0.000123000000000,0.016800000000000,0.000439000000000,-0.018800000000000,-0.000048800000000,0.000506000000000,0.189000000000000,0.219000000000000,
86800.000000000000000,-0.000065500000000,-0.000063400000000,-0.000061700000000,-0.000000022400000,-0.000000218000000,0.000059600000000,0.000103000000000,-0.000003940000000,-0.000123000000000,0.016900000000000,0.000440000000000,-0.018900000000000,-0.000044100000000,0.000520000000000,0.189000000000000,0.220000000000000,
86900.000000000000000,-0.000065700000000,-0.000063700000000,-0.000062000000000,-0.000000021400000,-0.000000170000000,0.000059600000000,0.000103000000000,-0.000004170000000,-0.000124000000000,0.016900000000000,0.000442000000000,-0.018900000000000,-0.000034100000000,0.000547000000000,0.190000000000000,0.220000000000000,
87000.000000000000000,-0.000066000000000,-0.000064000000000,-0.000062300000000,-0.000000019700000,-0.000000090900000,0.000059700000000,0.000103000000000,-0.000004470000000,-0.000124000000000,0.017000000000000,0.000445000000000,-0.019000000000000,-0.000018600000000,0.000593000000000,0.190000000000000,0.220000000000000,
87100.000000000000000,-0.000066400000000,-0.000064400000000,-0.000062700000000,-0.000000018200000,-0.000000001950000,0.000059700000000,0.000103000000000,-0.000004840000000,-0.000124000000000,0.017100000000000,0.000448000000000,-0.019100000000000,-0.000000774000000,0.000643000000000,0.190000000000000,0.221000000000000,
87200.000000000000000,-0.000066800000000,-0.000064800000000,-0.000063100000000,-0.000000016400000,0.000000095900000,0.000059700000000,0.000103000000000,-0.000005240000000,-0.000125000000000,0.017100000000000,0.000452000000000,-0.019200000000000,0.000018500000000,0.000698000000000,0.191000000000000,0.221000000000000,
87300.000000000000000,-0.000067200000000,-0.000065200000000,-0.000063500000000,-0.000000014400000,0.000000187000000,0.000059700000000,0.000103000000000,-0.000005640000000,-0.000125000000000,0.017200000000000,0.000456000000000,-0.019300000000000,0.000037100000000,0.000750000000000,0.191000000000000,0.221000000000000,
87400.000000000000000,-0.000067600000000,-0.000065500000000,-0.000063900000000,-0.000000013200000,0.000000269000000,0.000059700000000,0.000103000000000,-0.000005980000000,-0.000125000000000,0.017300000000000,0.000459000000000,-0.019300000000000,0.000053400000000,0.000796000000000,0.191000000000000,0.222000000000000,
87500.000000000000000,-0.000067900000000,-0.000065800000000,-0.000064200000000,-0.000000012000000,0.000000331000000,0.000059700000000,0.000104000000000,-0.000006240000000,-0.000126000000000,0.017300000000000,0.000461000000000,-0.019400000000000,0.000066000000000,0.000831000000000,0.191000000000000,0.222000000000000,
87600.000000000000000,-0.000068000000000,-0.000065900000000,-0.000064300000000,-0.000000011200000,0.000000369000000,0.000059800000000,0.000104000000000,-0.000006380000000,-0.000126000000000,0.017400000000000,0.000463000000000,-0.019500000000000,0.000073600000000,0.000852000000000,0.192000000000000,0.222000000000000,
87700.000000000000000,-0.000068100000000,-0.000066000000000,-0.000064400000000,-0.000000011400000,0.000000373000000,0.000059800000000,0.000104000000000,-0.000006430000000,-0.000126000000000,0.017500000000000,0.000463000000000,-0.019600000000000,0.000074800000000,0.000854000000000,0.192000000000000,0.223000000000000,
87800.000000000000000,-0.000068100000000,-0.000066000000000,-0.000064400000000,-0.000000011900000,0.000000353000000,0.000059800000000,0.000104000000000,-0.000006400000000,-0.000126000000000,0.017500000000000,0.000463000000000,-0.019600000000000,0.000070800000000,0.000843000000000,0.192000000000000,0.223000000000000,
87900.000000000000000,-0.000068000000000,-0.000065900000000,-0.000064200000000,-0.000000012800000,0.000000306000000,0.000059800000000,0.000104000000000,-0.000006260000000,-0.000126000000000,0.017600000000000,0.000462000000000,-0.019700000000000,0.000061400000000,0.000817000000000,0.193000000000000,0.224000000000000,
88000.000000000000000,-0.000067700000000,-0.000065600000000,-0.000063900000000,-0.000000014400000,0.000000231000000,0.000059800000000,0.000104000000000,-0.000005990000000,-0.000126000000000,0.017700000000000,0.000459000000000,-0.019800000000000,0.000046500000000,0.000775000000000,0.193000000000000,0.224000000000000,
88100.000000000000000,-0.000067400000000,-0.000065300000000,-0.000063600000000,-0.000000015900000,0.000000142000000,0.000059800000000,0.000104000000000,-0.000005670000000,-0.000125000000000,0.017800000000000,0.000456000000000,-0.019800000000000,0.000028900000000,0.000726000000000,0.193000000000000,0.224000000000000,
88200.000000000000000,-0.000067200000000,-0.000065000000000,-0.000063300000000,-0.000000017700000,0.000000048700000,0.000059800000000,0.000104000000000,-0.000005350000000,-0.000125000000000,0.017800000000000,0.000453000000000,-0.019900000000000,0.000010100000000,0.000674000000000,0.194000000000000,0.225000000000000,
88300.000000000000000,-0.000066900000000,-0.000064800000000,-0.000063000000000,-0.000000019600000,-0.000000045400000,0.000059900000000,0.000104000000000,-0.000005040000000,-0.000125000000000,0.017900000000000,0.000451000000000,-0.019900000000000,-0.000008860000000,0.000622000000000,0.194000000000000,0.225000000000000,
88400.000000000000000,-0.000066700000000,-0.000064500000000,-0.000062700000000,-0.000000020900000,-0.000000128000000,0.000059900000000,0.000104000000000,-0.000004780000000,-0.000125000000000,0.018000000000000,0.000448000000000,-0.020000000000000,-0.000025300000000,0.000576000000000,0.194000000000000,0.226000000000000,
88500.000000000000000,-0.000066500000000,-0.000064300000000,-0.000062500000000,-0.000000022100000,-0.000000191000000,0.000059900000000,0.000104000000000,-0.000004540000000,-0.000124000000000,0.018000000000000,0.000446000000000,-0.020100000000000,-0.000038100000000,0.000542000000000,0.195000000000000,0.226000000000000,
88600.000000000000000,-0.000066400000000,-0.000064200000000,-0.000062400000000,-0.000000023000000,-0.000000230000000,0.000059900000000,0.000104000000000,-0.000004420000000,-0.000124000000000,0.018100000000000,0.000445000000000,-0.020100000000000,-0.000045800000000,0.000520000000000,0.195000000000000,0.226000000000000,
88700.000000000000000,-0.000066400000000,-0.000064200000000,-0.000062400000000,-0.000000022800000,-0.000000236000000,0.000059900000000,0.000104000000000,-0.000004420000000,-0.000124000000000,0.018200000000000,0.000445000000000,-0.020200000000000,-0.000047200000000,0.000518000000000,0.195000000000000,0.227000000000000,
88800.000000000000000,-0.000066500000000,-0.000064400000000,-0.000062500000000,-0.000000022500000,-0.000000219000000,0.000059900000000,0.000104000000000,-0.000004540000000,-0.000124000000000,0.018300000000000,0.000446000000000,-0.020300000000000,-0.000043400000000,0.000528000000000,0.196000000000000,0.227000000000000,
88900.000000000000000,-0.000066800000000,-0.000064600000000,-0.000062700000000,-0.000000021700000,-0.000000173000000,0.000060000000000,0.000104000000000,-0.000004750000000,-0.000125000000000,0.018300000000000,0.000448000000000,-0.020400000000000,-0.000033800000000,0.000554000000000,0.196000000000000,0.228000000000000,
89000.000000000000000,-0.000067100000000,-0.000064900000000,-0.000063000000000,-0.000000020200000,-0.000000101000000,0.000060000000000,0.000104000000000,-0.000005040000000,-0.000125000000000,0.018400000000000,0.000451000000000,-0.020400000000000,-0.000018900000000,0.000595000000000,0.196000000000000,0.228000000000000,
89100.000000000000000,-0.000067400000000,-0.000065200000000,-0.000063400000000,-0.000000018700000,-0.000000015100000,0.000060000000000,0.000104000000000,-0.000005390000000,-0.000125000000000,0.018500000000000,0.000454000000000,-0.020500000000000,-0.000001130000000,0.000643000000000,0.197000000000000,0.228000000000000,
89200.000000000000000,-0.000067800000000,-0.000065600000000,-0.000063800000000,-0.000000017100000,0.000000079400000,0.000060000000000,0.000104000000000,-0.000005780000000,-0.000126000000000,0.018500000000000,0.000458000000000,-0.020600000000000,0.000018200000000,0.000696000000000,0.197000000000000,0.229000000000000,
89300.000000000000000,-0.000068200000000,-0.000066000000000,-0.000064200000000,-0.000000015300000,0.000000171000000,0.000060000000000,0.000104000000000,-0.000006170000000,-0.000126000000000,0.018600000000000,0.000461000000000,-0.020700000000000,0.000037300000000,0.000747000000000,0.197000000000000,0.229000000000000,
89400.000000000000000,-0.000068600000000,-0.000066300000000,-0.000064600000000,-0.000000014200000,0.000000253000000,0.000060000000000,0.000104000000000,-0.000006510000000,-0.000127000000000,0.018700000000000,0.000464000000000,-0.020800000000000,0.000054100000000,0.000793000000000,0.198000000000000,0.229000000000000,
89500.000000000000000,-0.000068800000000,-0.000066600000000,-0.000064800000000,-0.000000013000000,0.000000314000000,0.000060000000000,0.000104000000000,-0.000006760000000,-0.000127000000000,0.018700000000000,0.000467000000000,-0.020900000000000,0.000067100000000,0.000827000000000,0.198000000000000,0.230000000000000,
89600.000000000000000,-0.000069000000000,-0.000066800000000,-0.000065000000000,-0.000000012200000,0.000000352000000,0.000060100000000,0.000104000000000,-0.000006910000000,-0.000127000000000,0.018800000000000,0.000468000000000,-0.020900000000000,0.000075100000000,0.000849000000000,0.198000000000000,0.230000000000000,
89700.000000000000000,-0.000069100000000,-0.000066800000000,-0.000065100000000,-0.000000012400000,0.000000358000000,0.000060100000000,0.000104000000000,-0.000006970000000,-0.000127000000000,0.018900000000000,0.000469000000000,-0.021000000000000,0.000076600000000,0.000852000000000,0.199000000000000,0.231000000000000,
89800.000000000000000,-0.000069100000000,-0.000066800000000,-0.000065100000000,-0.000000012800000,0.000000341000000,0.000060100000000,0.000104000000000,-0.000006950000000,-0.000127000000000,0.019000000000000,0.000469000000000,-0.021100000000000,0.000072900000000,0.000843000000000,0.199000000000000,0.231000000000000,
89900.000000000000000,-0.000069000000000,-0.000066700000000,-0.000064900000000,-0.000000013700000,0.000000296000000,0.000060100000000,0.000104000000000,-0.000006810000000,-0.000127000000000,0.019000000000000,0.000467000000000,-0.021100000000000,0.000063500000000,0.000818000000000,0.199000000000000,0.231000000000000,
90000.000000000000000,-0.000068800000000,-0.000066500000000,-0.000064700000000,-0.000000015200000,0.000000222000000,0.000060100000000,0.000104000000000,-0.000006540000000,-0.000127000000000,0.019100000000000,0.000465000000000,-0.021200000000000,0.000048500000000,0.000777000000000,0.200000000000000,0.232000000000000,
90100.000000000000000,-0.000068500000000,-0.000066200000000,-0.000064300000000,-0.000000016500000,0.000000136000000,0.000060100000000,0.000104000000000,-0.000006240000000,-0.000127000000000,0.019200000000000,0.000462000000000,-0.021300000000000,0.000030900000000,0.000730000000000,0.200000000000000,0.232000000000000,
90200.000000000000000,-0.000068200000000,-0.000065900000000,-0.000064000000000,-0.000000018100000,0.000000043000000,0.000060200000000,0.000104000000000,-0.000005930000000,-0.000126000000000,0.019300000000000,0.000459000000000,-0.021300000000000,0.000011600000000,0.000678000000000,0.200000000000000,0.233000000000000,
90300.000000000000000,-0.000067900000000,-0.000065700000000,-0.000063700000000,-0.000000020000000,-0.000000047000000,0.000060200000000,0.000104000000000,-0.000005630000000,-0.000126000000000,0.019300000000000,0.000457000000000,-0.021400000000000,-0.000007320000000,0.000628000000000,0.201000000000000,0.233000000000000,
90400.000000000000000,-0.000067700000000,-0.000065400000000,-0.000063500000000,-0.000000021200000,-0.000000127000000,0.000060200000000,0.000104000000000,-0.000005370000000,-0.000126000000000,0.019400000000000,0.000454000000000,-0.021500000000000,-0.000023900000000,0.000585000000000,0.201000000000000,0.233000000000000,
90500.000000000000000,-0.000067500000000,-0.000065200000000,-0.000063200000000,-0.000000022300000,-0.000000189000000,0.000060200000000,0.000104000000000,-0.000005140000000,-0.000126000000000,0.019500000000000,0.000452000000000,-0.021500000000000,-0.000036700000000,0.000551000000000,0.201000000000000,0.234000000000000,
90600.000000000000000,-0.000067400000000,-0.000065100000000,-0.000063100000000,-0.000000023000000,-0.000000225000000,0.000060200000000,0.000104000000000,-0.000005030000000,-0.000126000000000,0.019600000000000,0.000452000000000,-0.021600000000000,-0.000044200000000,0.000531000000000,0.202000000000000,0.234000000000000,
90700.000000000000000,-0.000067400000000,-0.000065100000000,-0.000063100000000,-0.000000023100000,-0.000000226000000,0.000060200000000,0.000104000000000,-0.000004990000000,-0.000126000000000,0.019600000000000,0.000451000000000,-0.021700000000000,-0.000045300000000,0.000531000000000,0.202000000000000,0.235000000000000,
90800.000000000000000,-0.000067700000000,-0.000065400000000,-0.000063400000000,-0.000000022000000,-0.000000200000000,0.000060200000000,0.000104000000000,-0.000005240000000,-0.000126000000000,0.019700000000000,0.000454000000000,-0.021800000000000,-0.000037400000000,0.000546000000000,0.202000000000000,0.235000000000000,
90900.000000000000000,-0.000067900000000,-0.000065600000000,-0.000063600000000,-0.000000021800000,-0.000000150000000,0.000060300000000,0.000104000000000,-0.000005430000000,-0.000126000000000,0.019800000000000,0.000456000000000,-0.021900000000000,-0.000028900000000,0.000573000000000,0.203000000000000,0.235000000000000,
91000.000000000000000,-0.000068200000000,-0.000065900000000,-0.000063900000000,-0.000000020200000,-0.000000052400000,0.000060300000000,0.000104000000000,-0.000005710000000,-0.000126000000000,0.019900000000000,0.000458000000000,-0.022000000000000,-0.000008650000000,0.000630000000000,0.203000000000000,0.236000000000000,
91100.000000000000000,-0.000068600000000,-0.000066200000000,-0.000064200000000,-0.000000018500000,0.000000006100000,0.000060300000000,0.000104000000000,-0.000006060000000,-0.000127000000000,0.019900000000000,0.000461000000000,-0.022000000000000,0.000005850000000,0.000662000000000,0.203000000000000,0.236000000000000,
91200.000000000000000,-0.000069200000000,-0.000066800000000,-0.000064900000000,-0.000000016500000,0.000000177000000,0.000060300000000,0.000104000000000,-0.000006720000000,-0.000127000000000,0.020000000000000,0.000466000000000,-0.022100000000000,0.000039400000000,0.000759000000000,0.204000000000000,0.236000000000000,
91300.000000000000000,-0.000069500000000,-0.000067100000000,-0.000065200000000,-0.000000014300000,0.000000210000000,0.000060300000000,0.000105000000000,-0.000006980000000,-0.000128000000000,0.020100000000000,0.000469000000000,-0.022200000000000,0.000051300000000,0.000775000000000,0.204000000000000,0.237000000000000,
91400.000000000000000,-0.000069700000000,-0.000067300000000,-0.000065400000000,-0.000000014000000,0.000000253000000,0.000060300000000,0.000105000000000,-0.000007170000000,-0.000128000000000,0.020100000000000,0.000471000000000,-0.022300000000000,0.000059500000000,0.000798000000000,0.204000000000000,0.237000000000000,
91500.000000000000000,-0.000069800000000,-0.000067400000000,-0.000065500000000,-0.000000013600000,0.000000281000000,0.000060400000000,0.000105000000000,-0.000007220000000,-0.000128000000000,0.020200000000000,0.000472000000000,-0.022300000000000,0.000065300000000,0.000815000000000,0.205000000000000,0.238000000000000,
91600.000000000000000,-0.000069700000000,-0.000067300000000,-0.000065300000000,-0.000000014500000,0.000000270000000,0.000060400000000,0.000105000000000,-0.000007100000000,-0.000128000000000,0.020300000000000,0.000471000000000,-0.022400000000000,0.000060700000000,0.000807000000000,0.205000000000000,0.238000000000000,
91700.000000000000000,-0.000069800000000,-0.000067400000000,-0.000065500000000,-0.000000014100000,0.000000269000000,0.000060400000000,0.000105000000000,-0.000007220000000,-0.000128000000000,0.020400000000000,0.000472000000000,-0.022500000000000,0.000061400000000,0.000808000000000,0.205000000000000,0.238000000000000,
91800.000000000000000,-0.000069600000000,-0.000067200000000,-0.000065300000000,-0.000000014900000,0.000000190000000,0.000060400000000,0.000105000000000,-0.000007010000000,-0.000128000000000,0.020400000000000,0.000470000000000,-0.022600000000000,0.000047200000000,0.000762000000000,0.206000000000000,0.239000000000000,
91900.000000000000000,-0.000069600000000,-0.000067200000000,-0.000065200000000,-0.000000015600000,0.000000175000000,0.000060400000000,0.000105000000000,-0.000006910000000,-0.000128000000000,0.020500000000000,0.000469000000000,-0.022600000000000,0.000043000000000,0.000755000000000,0.206000000000000,0.239000000000000,
92000.000000000000000,-0.000069400000000,-0.000067000000000,-0.000065000000000,-0.000000016600000,0.000000111000000,0.000060400000000,0.000105000000000,-0.000006690000000,-0.000128000000000,0.020600000000000,0.000467000000000,-0.022700000000000,0.000029800000000,0.000718000000000,0.206000000000000,0.239000000000000,
92100.000000000000000,-0.000069400000000,-0.000066900000000,-0.000064900000000,-0.000000017400000,0.000000093000000,0.000060400000000,0.000105000000000,-0.000006650000000,-0.000128000000000,0.020700000000000,0.000467000000000,-0.022800000000000,0.000023800000000,0.000711000000000,0.207000000000000,0.240000000000000,
92200.000000000000000,-0.000069200000000,-0.000066800000000,-0.000064700000000,-0.000000018500000,0.000000038900000,0.000060500000000,0.000105000000000,-0.000006430000000,-0.000127000000000,0.020800000000000,0.000465000000000,-0.022900000000000,0.000011900000000,0.000683000000000,0.207000000000000,0.240000000000000,
92300.000000000000000,-0.000069000000000,-0.000066600000000,-0.000064500000000,-0.000000018700000,-0.000000050600000,0.000060500000000,0.000105000000000,-0.000006270000000,-0.000127000000000,0.020800000000000,0.000464000000000,-0.022900000000000,-0.000003160000000,0.000633000000000,0.207000000000000,0.241000000000000,
92400.000000000000000,-0.000069000000000,-0.000066500000000,-0.000064400000000,-0.000000019800000,-0.000000090500000,0.000060500000000,0.000105000000000,-0.000006150000000,-0.000127000000000,0.020900000000000,0.000462000000000,-0.023000000000000,-0.000012900000000,0.000611000000000,0.208000000000000,0.241000000000000,
92500.000000000000000,-0.000068700000000,-0.000066300000000,-0.000064200000000,-0.000000021300000,-0.000000139000000,0.000060500000000,0.000105000000000,-0.000005880000000,-0.000127000000000,0.021000000000000,0.000460000000000,-0.023100000000000,-0.000024900000000,0.000584000000000,0.208000000000000,0.241000000000000,
92600.000000000000000,-0.000068700000000,-0.000066300000000,-0.000064100000000,-0.000000021500000,-0.000000142000000,0.000060500000000,0.000105000000000,-0.000005860000000,-0.000127000000000,0.021100000000000,0.000460000000000,-0.023200000000000,-0.000027100000000,0.000583000000000,0.208000000000000,0.242000000000000,
92700.000000000000000,-0.000068700000000,-0.000066200000000,-0.000064100000000,-0.000000022000000,-0.000000171000000,0.000060500000000,0.000105000000000,-0.000005810000000,-0.000127000000000,0.021200000000000,0.000460000000000,-0.023200000000000,-0.000032400000000,0.000566000000000,0.209000000000000,0.242000000000000,
92800.000000000000000,-0.000068900000000,-0.000066400000000,-0.000064300000000,-0.000000021200000,-0.000000147000000,0.000060600000000,0.000105000000000,-0.000005990000000,-0.000127000000000,0.021200000000000,0.000461000000000,-0.023300000000000,-0.000025600000000,0.000580000000000,0.209000000000000,0.243000000000000,
92900.000000000000000,-0.000069100000000,-0.000066600000000,-0.000064500000000,-0.000000020500000,-0.000000102000000,0.000060600000000,0.000105000000000,-0.000006190000000,-0.000127000000000,0.021300000000000,0.000463000000000,-0.023400000000000,-0.000016000000000,0.000605000000000,0.209000000000000,0.243000000000000,
93000.000000000000000,-0.000069500000000,-0.000067000000000,-0.000064900000000,-0.000000019400000,-0.000000015200000,0.000060600000000,0.000105000000000,-0.000006540000000,-0.000128000000000,0.021400000000000,0.000466000000000,-0.023500000000000,0.000002290000000,0.000654000000000,0.210000000000000,0.243000000000000,
93100.000000000000000,-0.000069800000000,-0.000067300000000,-0.000065200000000,-0.000000018100000,0.000000077600000,0.000060600000000,0.000105000000000,-0.000006890000000,-0.000128000000000,0.021500000000000,0.000470000000000,-0.023600000000000,0.000021700000000,0.000705000000000,0.210000000000000,0.244000000000000,
93200.000000000000000,-0.000070200000000,-0.000067700000000,-0.000065600000000,-0.000000016500000,0.000000144000000,0.000060600000000,0.000105000000000,-0.000007240000000,-0.000129000000000,0.021500000000000,0.000473000000000,-0.023700000000000,0.000039000000000,0.000742000000000,0.210000000000000,0.244000000000000,
93300.000000000000000,-0.000070500000000,-0.000068000000000,-0.000066000000000,-0.000000015200000,0.000000234000000,0.000060600000000,0.000105000000000,-0.000007580000000,-0.000129000000000,0.021600000000000,0.000476000000000,-0.023800000000000,0.000057700000000,0.000793000000000,0.211000000000000,0.245000000000000,
93400.000000000000000,-0.000070700000000,-0.000068200000000,-0.000066200000000,-0.000000014700000,0.000000280000000,0.000060600000000,0.000105000000000,-0.000007760000000,-0.000129000000000,0.021700000000000,0.000478000000000,-0.023800000000000,0.000067300000000,0.000819000000000,0.211000000000000,0.245000000000000,
93500.000000000000000,-0.000070900000000,-0.000068300000000,-0.000066300000000,-0.000000014300000,0.000000289000000,0.000060700000000,0.000105000000000,-0.000007850000000,-0.000129000000000,0.021800000000000,0.000479000000000,-0.023900000000000,0.000070900000000,0.000824000000000,0.211000000000000,0.245000000000000,
93600.000000000000000,-0.000070800000000,-0.000068300000000,-0.000066200000000,-0.000000015000000,0.000000269000000,0.000060700000000,0.000105000000000,-0.000007770000000,-0.000129000000000,0.021800000000000,0.000478000000000,-0.024000000000000,0.000065700000000,0.000812000000000,0.211000000000000,0.246000000000000,
93700.000000000000000,-0.000070700000000,-0.000068200000000,-0.000066100000000,-0.000000015400000,0.000000233000000,0.000060700000000,0.000105000000000,-0.000007690000000,-0.000129000000000,0.021900000000000,0.000477000000000,-0.024100000000000,0.000058600000000,0.000793000000000,0.212000000000000,0.246000000000000,
93800.000000000000000,-0.000070500000000,-0.000068000000000,-0.000065900000000,-0.000000016700000,0.000000175000000,0.000060700000000,0.000105000000000,-0.000007440000000,-0.000129000000000,0.022000000000000,0.000475000000000,-0.024200000000000,0.000044700000000,0.000760000000000,0.212000000000000,0.246000000000000,
93900.000000000000000,-0.000070400000000,-0.000067800000000,-0.000065700000000,-0.000000018000000,0.000000116000000,0.000060700000000,0.000105000000000,-0.000007230000000,-0.000129000000000,0.022100000000000,0.000473000000000,-0.024200000000000,0.000031000000000,0.000728000000000,0.213000000000000,0.247000000000000,
94000.000000000000000,-0.000070200000000,-0.000067600000000,-0.000065400000000,-0.000000019200000,0.000000045600000,0.000060700000000,0.000105000000000,-0.000007020000000,-0.000129000000000,0.022200000000000,0.000471000000000,-0.024300000000000,0.000015900000000,0.000689000000000,0.213000000000000,0.247000000000000,
94100.000000000000000,-0.000070100000000,-0.000067500000000,-0.000065300000000,-0.000000019700000,-0.000000016400000,0.000060800000000,0.000105000000000,-0.000006880000000,-0.000128000000000,0.022300000000000,0.000470000000000,-0.024400000000000,0.000003490000000,0.000656000000000,0.213000000000000,0.248000000000000,
94200.000000000000000,-0.000070000000000,-0.000067400000000,-0.000065200000000,-0.000000020300000,-0.000000057900000,0.000060800000000,0.000105000000000,-0.000006750000000,-0.000128000000000,0.022300000000000,0.000469000000000,-0.024500000000000,-0.000005590000000,0.000634000000000,0.213000000000000,0.248000000000000,
94300.000000000000000,-0.000069900000000,-0.000067300000000,-0.000065100000000,-0.000000021200000,-0.000000081500000,0.000060800000000,0.000105000000000,-0.000006640000000,-0.000128000000000,0.022400000000000,0.000468000000000,-0.024500000000000,-0.000012300000000,0.000622000000000,0.214000000000000,0.248000000000000,
94400.000000000000000,-0.000069900000000,-0.000067300000000,-0.000065100000000,-0.000000021100000,-0.000000101000000,0.000060800000000,0.000105000000000,-0.000006630000000,-0.000128000000000,0.022500000000000,0.000468000000000,-0.024600000000000,-0.000015800000000,0.000612000000000,0.214000000000000,0.249000000000000,
94500.000000000000000,-0.000069900000000,-0.000067300000000,-0.000065100000000,-0.000000021400000,-0.000000112000000,0.000060800000000,0.000105000000000,-0.000006620000000,-0.000128000000000,0.022600000000000,0.000468000000000,-0.024700000000000,-0.000018200000000,0.000606000000000,0.214000000000000,0.249000000000000,
94600.000000000000000,-0.000070000000000,-0.000067400000000,-0.000065100000000,-0.000000021100000,-0.000000108000000,0.000060800000000,0.000105000000000,-0.000006680000000,-0.000128000000000,0.022700000000000,0.000469000000000,-0.024800000000000,-0.000016400000000,0.000609000000000,0.215000000000000,0.250000000000000,
94700.000000000000000,-0.000070100000000,-0.000067500000000,-0.000065200000000,-0.000000020900000,-0.000000091900000,0.000060900000000,0.000105000000000,-0.000006750000000,-0.000129000000000,0.022700000000000,0.000469000000000,-0.024900000000000,-0.000013100000000,0.000618000000000,0.215000000000000,0.250000000000000,
94800.000000000000000,-0.000070200000000,-0.000067600000000,-0.000065400000000,-0.000000020700000,-0.000000049100000,0.000060900000000,0.000106000000000,-0.000006890000000,-0.000129000000000,0.022800000000000,0.000471000000000,-0.024900000000000,-0.000004710000000,0.000642000000000,0.215000000000000,0.250000000000000,
94900.000000000000000,-0.000070500000000,-0.000067800000000,-0.000065600000000,-0.000000019900000,-0.000000015600000,0.000060900000000,0.000106000000000,-0.000007090000000,-0.000129000000000,0.022900000000000,0.000473000000000,-0.025000000000000,0.000004150000000,0.000660000000000,0.216000000000000,0.251000000000000,
95000.000000000000000,-0.000070700000000,-0.000068100000000,-0.000065900000000,-0.000000019000000,0.000000039700000,0.000060900000000,0.000106000000000,-0.000007350000000,-0.000129000000000,0.023000000000000,0.000475000000000,-0.025100000000000,0.000016900000000,0.000690000000000,0.216000000000000,0.251000000000000,
95100.000000000000000,-0.000071000000000,-0.000068400000000,-0.000066100000000,-0.000000018300000,0.000000107000000,0.000060900000000,0.000106000000000,-0.000007590000000,-0.000130000000000,0.023100000000000,0.000477000000000,-0.025200000000000,0.000031400000000,0.000727000000000,0.216000000000000,0.251000000000000,
95200.000000000000000,-0.000071300000000,-0.000068600000000,-0.000066400000000,-0.000000017300000,0.000000169000000,0.000060900000000,0.000106000000000,-0.000007860000000,-0.000130000000000,0.023100000000000,0.000480000000000,-0.025300000000000,0.000045900000000,0.000762000000000,0.217000000000000,0.252000000000000,
95300.000000000000000,-0.000071600000000,-0.000068900000000,-0.000066700000000,-0.000000016200000,0.000000220000000,0.000060900000000,0.000106000000000,-0.000008120000000,-0.000130000000000,0.023200000000000,0.000482000000000,-0.025400000000000,0.000058700000000,0.000791000000000,0.217000000000000,0.252000000000000,
95400.000000000000000,-0.000071700000000,-0.000069100000000,-0.000066800000000,-0.000000015600000,0.000000258000000,0.000061000000000,0.000106000000000,-0.000008280000000,-0.000130000000000,0.023300000000000,0.000484000000000,-0.025500000000000,0.000067300000000,0.000812000000000,0.217000000000000,0.253000000000000,
95500.000000000000000,-0.000071800000000,-0.000069200000000,-0.000066900000000,-0.000000015700000,0.000000270000000,0.000061000000000,0.000106000000000,-0.000008360000000,-0.000130000000000,0.023400000000000,0.000484000000000,-0.025600000000000,0.000069800000000,0.000818000000000,0.218000000000000,0.253000000000000,
95600.000000000000000,-0.000071800000000,-0.000069100000000,-0.000066900000000,-0.000000015900000,0.000000250000000,0.000061000000000,0.000106000000000,-0.000008330000000,-0.000130000000000,0.023500000000000,0.000484000000000,-0.025600000000000,0.000065800000000,0.000807000000000,0.218000000000000,0.253000000000000,
95700.000000000000000,-0.000071700000000,-0.000069000000000,-0.000066800000000,-0.000000016600000,0.000000219000000,0.000061000000000,0.000106000000000,-0.000008210000000,-0.000130000000000,0.023500000000000,0.000483000000000,-0.025700000000000,0.000057900000000,0.000791000000000,0.218000000000000,0.254000000000000,
95800.000000000000000,-0.000071600000000,-0.000068900000000,-0.000066600000000,-0.000000017600000,0.000000155000000,0.000061000000000,0.000106000000000,-0.000008030000000,-0.000130000000000,0.023600000000000,0.000481000000000,-0.025800000000000,0.000043700000000,0.000756000000000,0.219000000000000,0.254000000000000,
95900.000000000000000,-0.000071400000000,-0.000068700000000,-0.000066400000000,-0.000000018700000,0.000000076900000,0.000061000000000,0.000106000000000,-0.000007780000000,-0.000130000000000,0.023700000000000,0.000479000000000,-0.025900000000000,0.000026700000000,0.000713000000000,0.219000000000000,0.255000000000000,
96000.000000000000000,-0.000071200000000,-0.000068400000000,-0.000066100000000,-0.000000019900000,0.000000009150000,0.000061100000000,0.000106000000000,-0.000007520000000,-0.000130000000000,0.023800000000000,0.000477000000000,-0.026000000000000,0.000010300000000,0.000676000000000,0.219000000000000,0.255000000000000,
96100.000000000000000,-0.000070900000000,-0.000068200000000,-0.000065900000000,-0.000000021200000,-0.000000058500000,0.000061100000000,0.000106000000000,-0.000007290000000,-0.000130000000000,0.023900000000000,0.000475000000000,-0.026000000000000,-0.000005680000000,0.000639000000000,0.220000000000000,0.255000000000000,
96200.000000000000000,-0.000070800000000,-0.000068100000000,-0.000065700000000,-0.000000022000000,-0.000000113000000,0.000061100000000,0.000106000000000,-0.000007080000000,-0.000129000000000,0.024000000000000,0.000473000000000,-0.026100000000000,-0.000018000000000,0.000609000000000,0.220000000000000,0.256000000000000,
96300.000000000000000,-0.000070700000000,-0.000068000000000,-0.000065600000000,-0.000000022100000,-0.000000146000000,0.000061100000000,0.000106000000000,-0.000007020000000,-0.000129000000000,0.024000000000000,0.000473000000000,-0.026200000000000,-0.000024300000000,0.000593000000000,0.220000000000000,0.256000000000000,
96400.000000000000000,-0.000070800000000,-0.000068100000000,-0.000065600000000,-0.000000022000000,-0.000000153000000,0.000061100000000,0.000106000000000,-0.000007050000000,-0.000129000000000,0.024100000000000,0.000473000000000,-0.026300000000000,-0.000025700000000,0.000590000000000,0.221000000000000,0.257000000000000,
96500.000000000000000,-0.000070900000000,-0.000068100000000,-0.000065700000000,-0.000000022100000,-0.000000135000000,0.000061100000000,0.000106000000000,-0.000007100000000,-0.000129000000000,0.024200000000000,0.000473000000000,-0.026400000000000,-0.000022300000000,0.000600000000000,0.221000000000000,0.257000000000000,
96600.000000000000000,-0.000071000000000,-0.000068300000000,-0.000065800000000,-0.000000021600000,-0.000000104000000,0.000061100000000,0.000106000000000,-0.000007230000000,-0.000130000000000,0.024300000000000,0.000475000000000,-0.026400000000000,-0.000015200000000,0.000617000000000,0.221000000000000,0.257000000000000,
96700.000000000000000,-0.000071300000000,-0.000068500000000,-0.000066100000000,-0.000000020500000,-0.000000060400000,0.000061200000000,0.000106000000000,-0.000007470000000,-0.000130000000000,0.024400000000000,0.000477000000000,-0.026500000000000,-0.000003740000000,0.000642000000000,0.222000000000000,0.258000000000000,
96800.000000000000000,-0.000071500000000,-0.000068700000000,-0.000066300000000,-0.000000019600000,-0.000000003310000,0.000061200000000,0.000106000000000,-0.000007690000000,-0.000130000000000,0.024500000000000,0.000479000000000,-0.026600000000000,0.000009670000000,0.000674000000000,0.222000000000000,0.258000000000000,
96900.000000000000000,-0.000071800000000,-0.000069000000000,-0.000066600000000,-0.000000019000000,0.000000058200000,0.000061200000000,0.000106000000000,-0.000007950000000,-0.000130000000000,0.024500000000000,0.000481000000000,-0.026700000000000,0.000023600000000,0.000707000000000,0.222000000000000,0.258000000000000,
97000.000000000000000,-0.000072100000000,-0.000069300000000,-0.000066900000000,-0.000000018100000,0.000000115000000,0.000061200000000,0.000106000000000,-0.000008220000000,-0.000131000000000,0.024600000000000,0.000484000000000,-0.026800000000000,0.000037200000000,0.000738000000000,0.223000000000000,0.259000000000000,
97100.000000000000000,-0.000072300000000,-0.000069500000000,-0.000067100000000,-0.000000017400000,0.000000172000000,0.000061200000000,0.000106000000000,-0.000008430000000,-0.000131000000000,0.024700000000000,0.000486000000000,-0.026900000000000,0.000050100000000,0.000769000000000,0.223000000000000,0.259000000000000,
97200.000000000000000,-0.000072500000000,-0.000069700000000,-0.000067300000000,-0.000000017000000,0.000000217000000,0.000061200000000,0.000106000000000,-0.000008620000000,-0.000131000000000,0.024800000000000,0.000487000000000,-0.027000000000000,0.000060200000000,0.000794000000000,0.223000000000000,0.260000000000000,
97300.000000000000000,-0.000072700000000,-0.000069900000000,-0.000067500000000,-0.000000016400000,0.000000239000000,0.000061300000000,0.000106000000000,-0.000008790000000,-0.000131000000000,0.024900000000000,0.000489000000000,-0.027100000000000,0.000066800000000,0.000806000000000,0.224000000000000,0.260000000000000,
97400.000000000000000,-0.000072800000000,-0.000070000000000,-0.000067600000000,-0.000000016300000,0.000000252000000,0.000061300000000,0.000106000000000,-0.000008860000000,-0.000132000000000,0.024900000000000,0.000490000000000,-0.027200000000000,0.000069900000000,0.000814000000000,0.224000000000000,0.260000000000000,
97500.000000000000000,-0.000072800000000,-0.000070000000000,-0.000067600000000,-0.000000016800000,0.000000249000000,0.000061300000000,0.000106000000000,-0.000008870000000,-0.000132000000000,0.025000000000000,0.000490000000000,-0.027200000000000,0.000068200000000,0.000812000000000,0.224000000000000,0.261000000000000,
97600.000000000000000,-0.000072700000000,-0.000069900000000,-0.000067500000000,-0.000000017200000,0.000000213000000,0.000061300000000,0.000106000000000,-0.000008770000000,-0.000131000000000,0.025100000000000,0.000489000000000,-0.027300000000000,0.000060600000000,0.000792000000000,0.225000000000000,0.261000000000000,
97700.000000000000000,-0.000072600000000,-0.000069800000000,-0.000067300000000,-0.000000017800000,0.000000165000000,0.000061300000000,0.000106000000000,-0.000008600000000,-0.000131000000000,0.025200000000000,0.000487000000000,-0.027400000000000,0.000049600000000,0.000766000000000,0.225000000000000,0.261000000000000,
97800.000000000000000,-0.000072400000000,-0.000069600000000,-0.000067100000000,-0.000000018700000,0.000000108000000,0.000061300000000,0.000106000000000,-0.000008400000000,-0.000131000000000,0.025300000000000,0.000486000000000,-0.027500000000000,0.000035600000000,0.000736000000000,0.225000000000000,0.262000000000000,
97900.000000000000000,-0.000072200000000,-0.000069400000000,-0.000066900000000,-0.000000019700000,0.000000034200000,0.000061300000000,0.000106000000000,-0.000008170000000,-0.000131000000000,0.025400000000000,0.000484000000000,-0.027500000000000,0.000018900000000,0.000696000000000,0.226000000000000,0.262000000000000,
98000.000000000000000,-0.000072000000000,-0.000069200000000,-0.000066700000000,-0.000000020600000,-0.000000035600000,0.000061400000000,0.000106000000000,-0.000007930000000,-0.000131000000000,0.025400000000000,0.000481000000000,-0.027600000000000,0.000002730000000,0.000659000000000,0.226000000000000,0.263000000000000,
98100.000000000000000,-0.000071900000000,-0.000069000000000,-0.000066500000000,-0.000000021500000,-0.000000093600000,0.000061400000000,0.000106000000000,-0.000007720000000,-0.000131000000000,0.025500000000000,0.000480000000000,-0.027700000000000,-0.000011500000000,0.000627000000000,0.226000000000000,0.263000000000000,
98200.000000000000000,-0.000071700000000,-0.000068800000000,-0.000066300000000,-0.000000022400000,-0.000000141000000,0.000061400000000,0.000106000000000,-0.000007550000000,-0.000130000000000,0.025600000000000,0.000478000000000,-0.027800000000000,-0.000022800000000,0.000601000000000,0.227000000000000,0.263000000000000,
98300.000000000000000,-0.000071700000000,-0.000068800000000,-0.000066300000000,-0.000000022600000,-0.000000164000000,0.000061400000000,0.000106000000000,-0.000007510000000,-0.000130000000000,0.025700000000000,0.000478000000000,-0.027900000000000,-0.000028100000000,0.000589000000000,0.227000000000000,0.264000000000000,
98400.000000000000000,-0.000071800000000,-0.000068900000000,-0.000066300000000,-0.000000022500000,-0.000000165000000,0.000061400000000,0.000106000000000,-0.000007570000000,-0.000131000000000,0.025800000000000,0.000478000000000,-0.027900000000000,-0.000027800000000,0.000590000000000,0.227000000000000,0.264000000000000,
98500.000000000000000,-0.000071900000000,-0.000069000000000,-0.000066400000000,-0.000000022100000,-0.000000141000000,0.000061400000000,0.000107000000000,-0.000007690000000,-0.000131000000000,0.025900000000000,0.000479000000000,-0.028000000000000,-0.000021800000000,0.000603000000000,0.228000000000000,0.265000000000000,
98600.000000000000000,-0.000072100000000,-0.000069200000000,-0.000066600000000,-0.000000021500000,-0.000000094000000,0.000061500000000,0.000107000000000,-0.000007870000000,-0.000131000000000,0.025900000000000,0.000481000000000,-0.028100000000000,-0.000011000000000,0.000629000000000,0.228000000000000,0.265000000000000,
98700.000000000000000,-0.000072400000000,-0.000069500000000,-0.000066900000000,-0.000000020600000,-0.000000032600000,0.000061500000000,0.000107000000000,-0.000008150000000,-0.000131000000000,0.026000000000000,0.000484000000000,-0.028200000000000,0.000004060000000,0.000663000000000,0.228000000000000,0.265000000000000,
98800.000000000000000,-0.000072700000000,-0.000069800000000,-0.000067300000000,-0.000000019500000,0.000000036100000,0.000061500000000,0.000107000000000,-0.000008460000000,-0.000132000000000,0.026100000000000,0.000487000000000,-0.028300000000000,0.000021100000000,0.000700000000000,0.229000000000000,0.266000000000000,
98900.000000000000000,-0.000073000000000,-0.000070100000000,-0.000067600000000,-0.000000018600000,0.000000111000000,0.000061500000000,0.000107000000000,-0.000008760000000,-0.000132000000000,0.026200000000000,0.000489000000000,-0.028400000000000,0.000038700000000,0.000742000000000,0.229000000000000,0.266000000000000,
99000.000000000000000,-0.000073300000000,-0.000070400000000,-0.000067900000000,-0.000000017800000,0.000000173000000,0.000061500000000,0.000107000000000,-0.000009040000000,-0.000132000000000,0.026300000000000,0.000492000000000,-0.028500000000000,0.000054100000000,0.000775000000000,0.229000000000000,0.266000000000000,
99100.000000000000000,-0.000073600000000,-0.000070600000000,-0.000068100000000,-0.000000017000000,0.000000222000000,0.000061500000000,0.000107000000000,-0.000009240000000,-0.000132000000000,0.026400000000000,0.000494000000000,-0.028600000000000,0.000066300000000,0.000802000000000,0.229000000000000,0.267000000000000,
99200.000000000000000,-0.000073700000000,-0.000070700000000,-0.000068200000000,-0.000000016900000,0.000000256000000,0.000061500000000,0.000107000000000,-0.000009370000000,-0.000133000000000,0.026400000000000,0.000495000000000,-0.028700000000000,0.000073700000000,0.000820000000000,0.230000000000000,0.267000000000000,
99300.000000000000000,-0.000073800000000,-0.000070800000000,-0.000068300000000,-0.000000016800000,0.000000264000000,0.000061600000000,0.000107000000000,-0.000009430000000,-0.000133000000000,0.026500000000000,0.000496000000000,-0.028800000000000,0.000075800000000,0.000825000000000,0.230000000000000,0.268000000000000,
99400.000000000000000,-0.000073800000000,-0.000070800000000,-0.000068300000000,-0.000000016800000,0.000000247000000,0.000061600000000,0.000107000000000,-0.000009410000000,-0.000133000000000,0.026600000000000,0.000496000000000,-0.028800000000000,0.000072600000000,0.000815000000000,0.230000000000000,0.268000000000000,
99500.000000000000000,-0.000073700000000,-0.000070700000000,-0.000068200000000,-0.000000017500000,0.000000216000000,0.000061600000000,0.000107000000000,-0.000009300000000,-0.000133000000000,0.026700000000000,0.000495000000000,-0.028900000000000,0.000064800000000,0.000799000000000,0.231000000000000,0.268000000000000,
99600.000000000000000,-0.000073600000000,-0.000070600000000,-0.000068000000000,-0.000000018500000,0.000000169000000,0.000061600000000,0.000107000000000,-0.000009120000000,-0.000132000000000,0.026800000000000,0.000493000000000,-0.029000000000000,0.000052600000000,0.000773000000000,0.231000000000000,0.269000000000000,
99700.000000000000000,-0.000073400000000,-0.000070400000000,-0.000067800000000,-0.000000019100000,0.000000099800000,0.000061600000000,0.000107000000000,-0.000008910000000,-0.000132000000000,0.026900000000000,0.000491000000000,-0.029100000000000,0.000036900000000,0.000735000000000,0.231000000000000,0.269000000000000,
99800.000000000000000,-0.000073200000000,-0.000070200000000,-0.000067600000000,-0.000000020100000,0.000000032800000,0.000061600000000,0.000107000000000,-0.000008720000000,-0.000132000000000,0.026900000000000,0.000489000000000,-0.029200000000000,0.000020500000000,0.000700000000000,0.232000000000000,0.270000000000000,
99900.000000000000000,-0.000073000000000,-0.000070000000000,-0.000067400000000,-0.000000021000000,-0.000000033700000,0.000061600000000,0.000107000000000,-0.000008490000000,-0.000132000000000,0.027000000000000,0.000487000000000,-0.029200000000000,0.000004330000000,0.000665000000000,0.232000000000000,0.270000000000000,
100000.000000000000000,-0.000072900000000,-0.000069800000000,-0.000067200000000,-0.000000021700000,-0.000000094500000,0.000061700000000,0.000107000000000,-0.000008280000000,-0.000132000000000,0.027100000000000,0.000485000000000,-0.029300000000000,-0.000009910000000,0.000632000000000,0.232000000000000,0.270000000000000,
100000.000000000000000,-0.000072800000000,-0.000069700000000,-0.000067000000000,-0.000000022400000,-0.000000136000000,0.000061700000000,0.000107000000000,-0.000008150000000,-0.000132000000000,0.027200000000000,0.000484000000000,-0.029400000000000,-0.000020500000000,0.000610000000000,0.233000000000000,0.271000000000000,
100000.000000000000000,-0.000072700000000,-0.000069700000000,-0.000067000000000,-0.000000022800000,-0.000000162000000,0.000061700000000,0.000107000000000,-0.000008070000000,-0.000132000000000,0.027300000000000,0.000484000000000,-0.029500000000000,-0.000026800000000,0.000596000000000,0.233000000000000,0.271000000000000,
100000.000000000000000,-0.000072800000000,-0.000069700000000,-0.000067000000000,-0.000000022800000,-0.000000164000000,0.000061700000000,0.000107000000000,-0.000008100000000,-0.000132000000000,0.027400000000000,0.000484000000000,-0.029600000000000,-0.000027200000000,0.000596000000000,0.233000000000000,0.271000000000000,
100000.000000000000000,-0.000072900000000,-0.000069900000000,-0.000067100000000,-0.000000022300000,-0.000000147000000,0.000061700000000,0.000107000000000,-0.000008220000000,-0.000132000000000,0.027500000000000,0.000485000000000,-0.029700000000000,-0.000022200000000,0.000606000000000,0.234000000000000,0.272000000000000,
100000.000000000000000,-0.000073100000000,-0.000070000000000,-0.000067300000000,-0.000000021800000,-0.000000107000000,0.000061700000000,0.000107000000000,-0.000008380000000,-0.000132000000000,0.027600000000000,0.000487000000000,-0.029800000000000,-0.000012300000000,0.000627000000000,0.234000000000000,0.272000000000000,
101000.000000000000000,-0.000073300000000,-0.000070300000000,-0.000067500000000,-0.000000021100000,-0.000000044300000,0.000061800000000,0.000107000000000,-0.000008610000000,-0.000132000000000,0.027600000000000,0.000489000000000,-0.029800000000000,0.000002490000000,0.000662000000000,0.234000000000000,0.273000000000000,
101000.000000000000000,-0.000073700000000,-0.000070600000000,-0.000067900000000,-0.000000020100000,0.000000024300000,0.000061800000000,0.000107000000000,-0.000008930000000,-0.000133000000000,0.027700000000000,0.000492000000000,-0.029900000000000,0.000019700000000,0.000699000000000,0.235000000000000,0.273000000000000,
101000.000000000000000,-0.000074000000000,-0.000070900000000,-0.000068200000000,-0.000000019200000,0.000000094900000,0.000061800000000,0.000107000000000,-0.000009230000000,-0.000133000000000,0.027800000000000,0.000494000000000,-0.030000000000000,0.000037500000000,0.000737000000000,0.235000000000000,0.273000000000000,
101000.000000000000000,-0.000074300000000,-0.000071200000000,-0.000068500000000,-0.000000018000000,0.000000155000000,0.000061800000000,0.000107000000000,-0.000009510000000,-0.000133000000000,0.027900000000000,0.000497000000000,-0.030100000000000,0.000054500000000,0.000771000000000,0.235000000000000,0.274000000000000,
101000.000000000000000,-0.000074500000000,-0.000071400000000,-0.000068700000000,-0.000000017600000,0.000000216000000,0.000061800000000,0.000107000000000,-0.000009720000000,-0.000133000000000,0.028000000000000,0.000499000000000,-0.030200000000000,0.000068100000000,0.000803000000000,0.236000000000000,0.274000000000000,
101000.000000000000000,-0.000074600000000,-0.000071500000000,-0.000068900000000,-0.000000017200000,0.000000241000000,0.000061800000000,0.000107000000000,-0.000009860000000,-0.000134000000000,0.028000000000000,0.000500000000000,-0.030300000000000,0.000075300000000,0.000816000000000,0.236000000000000,0.274000000000000,
101000.000000000000000,-0.000074800000000,-0.000071700000000,-0.000069000000000,-0.000000017000000,0.000000260000000,0.000061800000000,0.000107000000000,-0.000009960000000,-0.000134000000000,0.028100000000000,0.000501000000000,-0.030400000000000,0.000079600000000,0.000826000000000,0.236000000000000,0.275000000000000,
101000.000000000000000,-0.000074800000000,-0.000071700000000,-0.000069000000000,-0.000000017400000,0.000000263000000,0.000061900000000,0.000107000000000,-0.000010000000000,-0.000134000000000,0.028200000000000,0.000502000000000,-0.030500000000000,0.000079000000000,0.000829000000000,0.237000000000000,0.275000000000000,
101000.000000000000000,-0.000074800000000,-0.000071700000000,-0.000069000000000,-0.000000017900000,0.000000226000000,0.000061900000000,0.000107000000000,-0.000009940000000,-0.000134000000000,0.028300000000000,0.000501000000000,-0.030600000000000,0.000070600000000,0.000809000000000,0.237000000000000,0.276000000000000,
101000.000000000000000,-0.000074600000000,-0.000071500000000,-0.000068800000000,-0.000000018300000,0.000000168000000,0.000061900000000,0.000107000000000,-0.000009740000000,-0.000134000000000,0.028400000000000,0.000499000000000,-0.030700000000000,0.000057600000000,0.000778000000000,0.237000000000000,0.276000000000000,
102000.000000000000000,-0.000074500000000,-0.000071300000000,-0.000068600000000,-0.000000019100000,0.000000098600000,0.000061900000000,0.000107000000000,-0.000009530000000,-0.000133000000000,0.028500000000000,0.000497000000000,-0.030700000000000,0.000041000000000,0.000741000000000,0.237000000000000,0.276000000000000,
102000.000000000000000,-0.000074300000000,-0.000071100000000,-0.000068300000000,-0.000000020200000,0.000000039100000,0.000061900000000,0.000107000000000,-0.000009300000000,-0.000133000000000,0.028600000000000,0.000495000000000,-0.030800000000000,0.000024400000000,0.000709000000000,0.238000000000000,0.277000000000000,
102000.000000000000000,-0.000074000000000,-0.000070900000000,-0.000068100000000,-0.000000021300000,-0.000000036300000,0.000061900000000,0.000107000000000,-0.000009030000000,-0.000133000000000,0.028700000000000,0.000493000000000,-0.030900000000000,0.000005800000000,0.000669000000000,0.238000000000000,0.277000000000000,
102000.000000000000000,-0.000073900000000,-0.000070700000000,-0.000067900000000,-0.000000021900000,-0.000000094900000,0.000062000000000,0.000107000000000,-0.000008840000000,-0.000133000000000,0.028800000000000,0.000491000000000,-0.031000000000000,-0.000008900000000,0.000638000000000,0.238000000000000,0.278000000000000,
102000.000000000000000,-0.000073800000000,-0.000070600000000,-0.000067700000000,-0.000000022400000,-0.000000140000000,0.000062000000000,0.000107000000000,-0.000008700000000,-0.000133000000000,0.028900000000000,0.000490000000000,-0.031100000000000,-0.000019900000000,0.000614000000000,0.239000000000000,0.278000000000000,
102000.000000000000000,-0.000073700000000,-0.000070500000000,-0.000067600000000,-0.000000022700000,-0.000000172000000,0.000062000000000,0.000107000000000,-0.000008610000000,-0.000133000000000,0.028900000000000,0.000489000000000,-0.031200000000000,-0.000027000000000,0.000597000000000,0.239000000000000,0.278000000000000,
102000.000000000000000,-0.000073800000000,-0.000070600000000,-0.000067700000000,-0.000000022700000,-0.000000172000000,0.000062000000000,0.000108000000000,-0.000008650000000,-0.000133000000000,0.029000000000000,0.000490000000000,-0.031200000000000,-0.000027100000000,0.000598000000000,0.239000000000000,0.279000000000000,
102000.000000000000000,-0.000073900000000,-0.000070700000000,-0.000067800000000,-0.000000022400000,-0.000000148000000,0.000062000000000,0.000108000000000,-0.000008770000000,-0.000133000000000,0.029100000000000,0.000491000000000,-0.031300000000000,-0.000021000000000,0.000611000000000,0.240000000000000,0.279000000000000,
102000.000000000000000,-0.000074100000000,-0.000070900000000,-0.000068000000000,-0.000000021900000,-0.000000096000000,0.000062000000000,0.000108000000000,-0.000008950000000,-0.000133000000000,0.029200000000000,0.000493000000000,-0.031400000000000,-0.000008740000000,0.000640000000000,0.240000000000000,0.279000000000000,
102000.000000000000000,-0.000074400000000,-0.000071200000000,-0.000068300000000,-0.000000020900000,-0.000000038300000,0.000062000000000,0.000108000000000,-0.000009210000000,-0.000133000000000,0.029300000000000,0.000495000000000,-0.031500000000000,0.000006610000000,0.000671000000000,0.240000000000000,0.280000000000000,
103000.000000000000000,-0.000074700000000,-0.000071500000000,-0.000068600000000,-0.000000020200000,0.000000027500000,0.000062100000000,0.000108000000000,-0.000009520000000,-0.000134000000000,0.029400000000000,0.000498000000000,-0.031600000000000,0.000023800000000,0.000706000000000,0.241000000000000,0.280000000000000,
103000.000000000000000,-0.000075000000000,-0.000071800000000,-0.000069000000000,-0.000000019300000,0.000000106000000,0.000062100000000,0.000108000000000,-0.000009840000000,-0.000134000000000,0.029500000000000,0.000501000000000,-0.031700000000000,0.000043200000000,0.000749000000000,0.241000000000000,0.281000000000000,
103000.000000000000000,-0.000075300000000,-0.000072100000000,-0.000069200000000,-0.000000018400000,0.000000168000000,0.000062100000000,0.000108000000000,-0.000010100000000,-0.000134000000000,0.029500000000000,0.000503000000000,-0.031800000000000,0.000059700000000,0.000782000000000,0.241000000000000,0.281000000000000,
103000.000000000000000,-0.000075500000000,-0.000072300000000,-0.000069500000000,-0.000000018100000,0.000000219000000,0.000062100000000,0.000108000000000,-0.000010300000000,-0.000135000000000,0.029600000000000,0.000505000000000,-0.031900000000000,0.000072500000000,0.000809000000000,0.242000000000000,0.281000000000000,
103000.000000000000000,-0.000075700000000,-0.000072400000000,-0.000069600000000,-0.000000017700000,0.000000255000000,0.000062100000000,0.000108000000000,-0.000010500000000,-0.000135000000000,0.029700000000000,0.000507000000000,-0.032000000000000,0.000081200000000,0.000828000000000,0.242000000000000,0.282000000000000,
103000.000000000000000,-0.000075800000000,-0.000072500000000,-0.000069700000000,-0.000000017700000,0.000000266000000,0.000062100000000,0.000108000000000,-0.000010500000000,-0.000135000000000,0.029800000000000,0.000507000000000,-0.032100000000000,0.000084000000000,0.000834000000000,0.242000000000000,0.282000000000000,
103000.000000000000000,-0.000075800000000,-0.000072500000000,-0.000069700000000,-0.000000017800000,0.000000246000000,0.000062200000000,0.000108000000000,-0.000010500000000,-0.000135000000000,0.029900000000000,0.000507000000000,-0.032200000000000,0.000080100000000,0.000824000000000,0.243000000000000,0.282000000000000,
103000.000000000000000,-0.000075700000000,-0.000072400000000,-0.000069600000000,-0.000000018200000,0.000000211000000,0.000062200000000,0.000108000000000,-0.000010400000000,-0.000135000000000,0.030000000000000,0.000506000000000,-0.032300000000000,0.000071200000000,0.000805000000000,0.243000000000000,0.283000000000000,
103000.000000000000000,-0.000075600000000,-0.000072300000000,-0.000069400000000,-0.000000019200000,0.000000162000000,0.000062200000000,0.000108000000000,-0.000010200000000,-0.000135000000000,0.030100000000000,0.000504000000000,-0.032400000000000,0.000057900000000,0.000779000000000,0.243000000000000,0.283000000000000,
103000.000000000000000,-0.000075400000000,-0.000072100000000,-0.000069200000000,-0.000000019700000,0.000000090700000,0.000062200000000,0.000108000000000,-0.000009990000000,-0.000135000000000,0.030200000000000,0.000502000000000,-0.032400000000000,0.000040500000000,0.000741000000000,0.244000000000000,0.284000000000000,
104000.000000000000000,-0.000075200000000,-0.000071900000000,-0.000069000000000,-0.000000020600000,0.000000022500000,0.000062200000000,0.000108000000000,-0.000009780000000,-0.000134000000000,0.030300000000000,0.000501000000000,-0.032500000000000,0.000023000000000,0.000705000000000,0.244000000000000,0.284000000000000,
104000.000000000000000,-0.000075000000000,-0.000071700000000,-0.000068700000000,-0.000000021700000,-0.000000046900000,0.000062200000000,0.000108000000000,-0.000009540000000,-0.000134000000000,0.030400000000000,0.000498000000000,-0.032600000000000,0.000005050000000,0.000668000000000,0.244000000000000,0.284000000000000,
104000.000000000000000,-0.000074800000000,-0.000071500000000,-0.000068500000000,-0.000000021900000,-0.000000102000000,0.000062200000000,0.000108000000000,-0.000009350000000,-0.000134000000000,0.030400000000000,0.000497000000000,-0.032700000000000,-0.000008500000000,0.000639000000000,0.245000000000000,0.285000000000000,
104000.000000000000000,-0.000074700000000,-0.000071400000000,-0.000068400000000,-0.000000022400000,-0.000000146000000,0.000062300000000,0.000108000000000,-0.000009220000000,-0.000134000000000,0.030500000000000,0.000496000000000,-0.032800000000000,-0.000018500000000,0.000616000000000,0.245000000000000,0.285000000000000,
104000.000000000000000,-0.000074700000000,-0.000071300000000,-0.000068300000000,-0.000000022600000,-0.000000165000000,0.000062300000000,0.000108000000000,-0.000009140000000,-0.000134000000000,0.030600000000000,0.000495000000000,-0.032900000000000,-0.000023300000000,0.000606000000000,0.245000000000000,0.285000000000000,
104000.000000000000000,-0.000074700000000,-0.000071400000000,-0.000068300000000,-0.000000022700000,-0.000000170000000,0.000062300000000,0.000108000000000,-0.000009150000000,-0.000134000000000,0.030700000000000,0.000495000000000,-0.033000000000000,-0.000024800000000,0.000604000000000,0.245000000000000,0.286000000000000,
104000.000000000000000,-0.000074700000000,-0.000071400000000,-0.000068300000000,-0.000000022900000,-0.000000174000000,0.000062300000000,0.000108000000000,-0.000009150000000,-0.000134000000000,0.030800000000000,0.000495000000000,-0.033000000000000,-0.000025500000000,0.000602000000000,0.246000000000000,0.286000000000000,
104000.000000000000000,-0.000074800000000,-0.000071500000000,-0.000068400000000,-0.000000022700000,-0.000000170000000,0.000062300000000,0.000108000000000,-0.000009210000000,-0.000134000000000,0.030900000000000,0.000496000000000,-0.033100000000000,-0.000023700000000,0.000604000000000,0.246000000000000,0.287000000000000,
104000.000000000000000,-0.000074900000000,-0.000071500000000,-0.000068400000000,-0.000000022500000,-0.000000155000000,0.000062300000000,0.000108000000000,-0.000009240000000,-0.000134000000000,0.031000000000000,0.000496000000000,-0.033200000000000,-0.000020300000000,0.000613000000000,0.246000000000000,0.287000000000000,
104000.000000000000000,-0.000075000000000,-0.000071600000000,-0.000068500000000,-0.000000022400000,-0.000000139000000,0.000062300000000,0.000108000000000,-0.000009310000000,-0.000134000000000,0.031100000000000,0.000497000000000,-0.033300000000000,-0.000015900000000,0.000621000000000,0.247000000000000,0.287000000000000,
105000.000000000000000,-0.000075100000000,-0.000071700000000,-0.000068600000000,-0.000000022200000,-0.000000110000000,0.000062400000000,0.000108000000000,-0.000009420000000,-0.000134000000000,0.031200000000000,0.000498000000000,-0.033400000000000,-0.000009200000000,0.000638000000000,0.247000000000000,0.288000000000000,
105000.000000000000000,-0.000075200000000,-0.000071800000000,-0.000068800000000,-0.000000021800000,-0.000000080300000,0.000062400000000,0.000108000000000,-0.000009540000000,-0.000134000000000,0.031200000000000,0.000499000000000,-0.033500000000000,-0.000001440000000,0.000654000000000,0.247000000000000,0.288000000000000,
105000.000000000000000,-0.000075400000000,-0.000072000000000,-0.000068900000000,-0.000000021600000,-0.000000048900000,0.000062400000000,0.000108000000000,-0.000009660000000,-0.000135000000000,0.031300000000000,0.000500000000000,-0.033600000000000,0.000006860000000,0.000671000000000,0.248000000000000,0.288000000000000,
105000.000000000000000,-0.000075500000000,-0.000072100000000,-0.000069100000000,-0.000000021300000,-0.000000017500000,0.000062400000000,0.000108000000000,-0.000009800000000,-0.000135000000000,0.031400000000000,0.000502000000000,-0.033700000000000,0.000015300000000,0.000688000000000,0.248000000000000,0.289000000000000,
105000.000000000000000,-0.000075700000000,-0.000072300000000,-0.000069200000000,-0.000000021200000,0.000000019300000,0.000062400000000,0.000108000000000,-0.000009940000000,-0.000135000000000,0.031500000000000,0.000503000000000,-0.033800000000000,0.000024100000000,0.000707000000000,0.248000000000000,0.289000000000000,
105000.000000000000000,-0.000075800000000,-0.000072400000000,-0.000069400000000,-0.000000020800000,0.000000060900000,0.000062400000000,0.000108000000000,-0.000010100000000,-0.000135000000000,0.031600000000000,0.000505000000000,-0.033900000000000,0.000034400000000,0.000730000000000,0.249000000000000,0.290000000000000,
105000.000000000000000,-0.000076000000000,-0.000072600000000,-0.000069500000000,-0.000000020500000,0.000000095700000,0.000062400000000,0.000108000000000,-0.000010300000000,-0.000135000000000,0.031700000000000,0.000506000000000,-0.034000000000000,0.000043500000000,0.000748000000000,0.249000000000000,0.290000000000000,
105000.000000000000000,-0.000076200000000,-0.000072800000000,-0.000069700000000,-0.000000020200000,0.000000129000000,0.000062500000000,0.000108000000000,-0.000010400000000,-0.000136000000000,0.031800000000000,0.000508000000000,-0.034100000000000,0.000052500000000,0.000766000000000,0.249000000000000,0.290000000000000,
105000.000000000000000,-0.000076300000000,-0.000072900000000,-0.000069800000000,-0.000000019800000,0.000000161000000,0.000062500000000,0.000108000000000,-0.000010500000000,-0.000136000000000,0.031900000000000,0.000509000000000,-0.034200000000000,0.000061000000000,0.000784000000000,0.250000000000000,0.291000000000000,
105000.000000000000000,-0.000076500000000,-0.000073000000000,-0.000070000000000,-0.000000019600000,0.000000194000000,0.000062500000000,0.000108000000000,-0.000010600000000,-0.000136000000000,0.032000000000000,0.000510000000000,-0.034300000000000,0.000069100000000,0.000802000000000,0.250000000000000,0.291000000000000,
106000.000000000000000,-0.000076600000000,-0.000073100000000,-0.000070100000000,-0.000000019600000,0.000000214000000,0.000062500000000,0.000108000000000,-0.000010700000000,-0.000136000000000,0.032100000000000,0.000511000000000,-0.034400000000000,0.000074400000000,0.000812000000000,0.250000000000000,0.291000000000000,
106000.000000000000000,-0.000076700000000,-0.000073200000000,-0.000070100000000,-0.000000019400000,0.000000229000000,0.000062500000000,0.000108000000000,-0.000010800000000,-0.000136000000000,0.032200000000000,0.000512000000000,-0.034500000000000,0.000078400000000,0.000821000000000,0.250000000000000,0.292000000000000,
106000.000000000000000,-0.000076700000000,-0.000073300000000,-0.000070200000000,-0.000000019600000,0.000000243000000,0.000062500000000,0.000108000000000,-0.000010800000000,-0.000136000000000,0.032200000000000,0.000512000000000,-0.034500000000000,0.000081200000000,0.000828000000000,0.251000000000000,0.292000000000000,
106000.000000000000000,-0.000076800000000,-0.000073300000000,-0.000070200000000,-0.000000019700000,0.000000241000000,0.000062600000000,0.000108000000000,-0.000010800000000,-0.000136000000000,0.032300000000000,0.000513000000000,-0.034600000000000,0.000081300000000,0.000827000000000,0.251000000000000,0.292000000000000,
106000.000000000000000,-0.000076800000000,-0.000073300000000,-0.000070200000000,-0.000000019700000,0.000000240000000,0.000062600000000,0.000109000000000,-0.000010800000000,-0.000136000000000,0.032400000000000,0.000513000000000,-0.034700000000000,0.000081500000000,0.000827000000000,0.251000000000000,0.293000000000000,
106000.000000000000000,-0.000076800000000,-0.000073300000000,-0.000070200000000,-0.000000019900000,0.000000245000000,0.000062600000000,0.000109000000000,-0.000010800000000,-0.000136000000000,0.032500000000000,0.000513000000000,-0.034800000000000,0.000082300000000,0.000829000000000,0.252000000000000,0.293000000000000,
106000.000000000000000,-0.000076800000000,-0.000073300000000,-0.000070200000000,-0.000000020100000,0.000000240000000,0.000062600000000,0.000109000000000,-0.000010800000000,-0.000136000000000,0.032600000000000,0.000513000000000,-0.034900000000000,0.000081500000000,0.000827000000000,0.252000000000000,0.294000000000000,
106000.000000000000000,-0.000076800000000,-0.000073300000000,-0.000070200000000,-0.000000020200000,0.000000236000000,0.000062600000000,0.000109000000000,-0.000010800000000,-0.000136000000000,0.032700000000000,0.000513000000000,-0.035000000000000,0.000080500000000,0.000824000000000,0.252000000000000,0.294000000000000,
106000.000000000000000,-0.000076800000000,-0.000073200000000,-0.000070100000000,-0.000000020600000,0.000000227000000,0.000062600000000,0.000109000000000,-0.000010700000000,-0.000136000000000,0.032800000000000,0.000512000000000,-0.035100000000000,0.000078100000000,0.000820000000000,0.253000000000000,0.294000000000000,
106000.000000000000000,-0.000076700000000,-0.000073200000000,-0.000070100000000,-0.000000020800000,0.000000213000000,0.000062600000000,0.000109000000000,-0.000010700000000,-0.000136000000000,0.032900000000000,0.000512000000000,-0.035200000000000,0.000074800000000,0.000813000000000,0.253000000000000,0.295000000000000,
107000.000000000000000,-0.000076700000000,-0.000073100000000,-0.000070000000000,-0.000000021000000,0.000000198000000,0.000062700000000,0.000109000000000,-0.000010600000000,-0.000136000000000,0.033000000000000,0.000511000000000,-0.035300000000000,0.000071300000000,0.000805000000000,0.253000000000000,0.295000000000000,
107000.000000000000000,-0.000076600000000,-0.000073100000000,-0.000069900000000,-0.000000021400000,0.000000190000000,0.000062700000000,0.000109000000000,-0.000010500000000,-0.000136000000000,0.033100000000000,0.000511000000000,-0.035400000000000,0.000068700000000,0.000801000000000,0.254000000000000,0.295000000000000,
107000.000000000000000,-0.000076600000000,-0.000073100000000,-0.000069900000000,-0.000000021600000,0.000000189000000,0.000062700000000,0.000109000000000,-0.000010500000000,-0.000136000000000,0.033200000000000,0.000511000000000,-0.035500000000000,0.000067800000000,0.000801000000000,0.254000000000000,0.296000000000000,
107000.000000000000000,-0.000076600000000,-0.000073000000000,-0.000069900000000,-0.000000021800000,0.000000188000000,0.000062700000000,0.000109000000000,-0.000010400000000,-0.000136000000000,0.033200000000000,0.000511000000000,-0.035600000000000,0.000067600000000,0.000800000000000,0.254000000000000,0.296000000000000,
107000.000000000000000,-0.000076600000000,-0.000073100000000,-0.000069900000000,-0.000000022000000,0.000000193000000,0.000062700000000,0.000109000000000,-0.000010500000000,-0.000136000000000,0.033300000000000,0.000511000000000,-0.035600000000000,0.000068800000000,0.000802000000000,0.254000000000000,0.296000000000000,
107000.000000000000000,-0.000076700000000,-0.000073100000000,-0.000069900000000,-0.000000022000000,0.000000201000000,0.000062700000000,0.000109000000000,-0.000010500000000,-0.000136000000000,0.033400000000000,0.000511000000000,-0.035700000000000,0.000071200000000,0.000807000000000,0.255000000000000,0.297000000000000,
107000.000000000000000,-0.000076700000000,-0.000073100000000,-0.000069900000000,-0.000000022100000,0.000000210000000,0.000062700000000,0.000109000000000,-0.000010500000000,-0.000136000000000,0.033500000000000,0.000512000000000,-0.035800000000000,0.000073600000000,0.000811000000000,0.255000000000000,0.297000000000000,
107000.000000000000000,-0.000076700000000,-0.000073100000000,-0.000069900000000,-0.000000022200000,0.000000222000000,0.000062800000000,0.000109000000000,-0.000010500000000,-0.000136000000000,0.033600000000000,0.000512000000000,-0.035900000000000,0.000076600000000,0.000818000000000,0.255000000000000,0.298000000000000,
107000.000000000000000,-0.000076800000000,-0.000073200000000,-0.000069900000000,-0.000000022200000,0.000000227000000,0.000062800000000,0.000109000000000,-0.000010500000000,-0.000136000000000,0.033700000000000,0.000512000000000,-0.036000000000000,0.000078200000000,0.000822000000000,0.256000000000000,0.298000000000000,
107000.000000000000000,-0.000076700000000,-0.000073100000000,-0.000069900000000,-0.000000022400000,0.000000228000000,0.000062800000000,0.000109000000000,-0.000010400000000,-0.000136000000000,0.033800000000000,0.000512000000000,-0.036100000000000,0.000078300000000,0.000822000000000,0.256000000000000,0.298000000000000,
108000.000000000000000,-0.000076700000000,-0.000073100000000,-0.000069900000000,-0.000000022600000,0.000000223000000,0.000062800000000,0.000109000000000,-0.000010400000000,-0.000136000000000,0.033900000000000,0.000512000000000,-0.036200000000000,0.000077500000000,0.000819000000000,0.256000000000000,0.299000000000000,
108000.000000000000000,-0.000076700000000,-0.000073100000000,-0.000069800000000,-0.000000022500000,0.000000224000000,0.000062800000000,0.000109000000000,-0.000010400000000,-0.000136000000000,0.034000000000000,0.000512000000000,-0.036300000000000,0.000078100000000,0.000820000000000,0.257000000000000,0.299000000000000,
108000.000000000000000,-0.000076800000000,-0.000073100000000,-0.000069800000000,-0.000000022700000,0.000000234000000,0.000062800000000,0.000109000000000,-0.000010400000000,-0.000136000000000,0.034100000000000,0.000512000000000,-0.036400000000000,0.000080400000000,0.000826000000000,0.257000000000000,0.299000000000000,
108000.000000000000000,-0.000076800000000,-0.000073100000000,-0.000069800000000,-0.000000022900000,0.000000237000000,0.000062800000000,0.000109000000000,-0.000010400000000,-0.000136000000000,0.034200000000000,0.000512000000000,-0.036500000000000,0.000081400000000,0.000827000000000,0.257000000000000,0.300000000000000,
108000.000000000000000,-0.000076800000000,-0.000073100000000,-0.000069800000000,-0.000000022900000,0.000000234000000,0.000062900000000,0.000109000000000,-0.000010300000000,-0.000136000000000,0.034200000000000,0.000512000000000,-0.036600000000000,0.000081100000000,0.000826000000000,0.257000000000000,0.300000000000000,
108000.000000000000000,-0.000076700000000,-0.000073100000000,-0.000069800000000,-0.000000023100000,0.000000231000000,0.000062900000000,0.000109000000000,-0.000010300000000,-0.000136000000000,0.034300000000000,0.000512000000000,-0.036600000000000,0.000080000000000,0.000825000000000,0.258000000000000,0.300000000000000,
108000.000000000000000,-0.000076700000000,-0.000073000000000,-0.000069700000000,-0.000000023200000,0.000000222000000,0.000062900000000,0.000109000000000,-0.000010200000000,-0.000136000000000,0.034400000000000,0.000511000000000,-0.036700000000000,0.000078400000000,0.000820000000000,0.258000000000000,0.301000000000000,
108000.000000000000000,-0.000076700000000,-0.000073000000000,-0.000069700000000,-0.000000023400000,0.000000223000000,0.000062900000000,0.000109000000000,-0.000010200000000,-0.000136000000000,0.034500000000000,0.000511000000000,-0.036800000000000,0.000078100000000,0.000820000000000,0.258000000000000,0.301000000000000,
108000.000000000000000,-0.000076700000000,-0.000073000000000,-0.000069600000000,-0.000000023800000,0.000000222000000,0.000062900000000,0.000109000000000,-0.000010100000000,-0.000136000000000,0.034600000000000,0.000511000000000,-0.036900000000000,0.000077000000000,0.000820000000000,0.259000000000000,0.301000000000000,
108000.000000000000000,-0.000076600000000,-0.000072900000000,-0.000069600000000,-0.000000024000000,0.000000202000000,0.000062900000000,0.000109000000000,-0.000010100000000,-0.000136000000000,0.034700000000000,0.000510000000000,-0.037000000000000,0.000072600000000,0.000809000000000,0.259000000000000,0.302000000000000,
109000.000000000000000,-0.000076500000000,-0.000072800000000,-0.000069400000000,-0.000000024200000,0.000000175000000,0.000062900000000,0.000109000000000,-0.000009940000000,-0.000136000000000,0.034800000000000,0.000510000000000,-0.037100000000000,0.000065700000000,0.000794000000000,0.259000000000000,0.302000000000000,
109000.000000000000000,-0.000076400000000,-0.000072700000000,-0.000069300000000,-0.000000024700000,0.000000146000000,0.000063000000000,0.000109000000000,-0.000009770000000,-0.000136000000000,0.034900000000000,0.000508000000000,-0.037200000000000,0.000057800000000,0.000779000000000,0.259000000000000,0.303000000000000,
109000.000000000000000,-0.000076200000000,-0.000072500000000,-0.000069100000000,-0.000000024900000,0.000000115000000,0.000063000000000,0.000109000000000,-0.000009600000000,-0.000136000000000,0.035000000000000,0.000507000000000,-0.037300000000000,0.000050500000000,0.000763000000000,0.260000000000000,0.303000000000000,
109000.000000000000000,-0.000076100000000,-0.000072400000000,-0.000069000000000,-0.000000025100000,0.000000086900000,0.000063000000000,0.000109000000000,-0.000009470000000,-0.000136000000000,0.035100000000000,0.000506000000000,-0.037400000000000,0.000044000000000,0.000749000000000,0.260000000000000,0.303000000000000,
109000.000000000000000,-0.000076000000000,-0.000072300000000,-0.000068800000000,-0.000000025300000,0.000000045100000,0.000063000000000,0.000109000000000,-0.000009280000000,-0.000135000000000,0.035200000000000,0.000504000000000,-0.037400000000000,0.000034300000000,0.000728000000000,0.260000000000000,0.304000000000000,
109000.000000000000000,-0.000075700000000,-0.000072000000000,-0.000068500000000,-0.000000025200000,-0.000000017500000,0.000063000000000,0.000109000000000,-0.000009030000000,-0.000135000000000,0.035200000000000,0.000502000000000,-0.037500000000000,0.000019600000000,0.000694000000000,0.261000000000000,0.304000000000000,
109000.000000000000000,-0.000075500000000,-0.000071800000000,-0.000068300000000,-0.000000026100000,-0.000000087400000,0.000063000000000,0.000109000000000,-0.000008770000000,-0.000135000000000,0.035300000000000,0.000501000000000,-0.037600000000000,0.000002480000000,0.000656000000000,0.261000000000000,0.304000000000000,
109000.000000000000000,-0.000075200000000,-0.000071500000000,-0.000067900000000,-0.000000027300000,-0.000000139000000,0.000063000000000,0.000109000000000,-0.000008430000000,-0.000135000000000,0.035300000000000,0.000496000000000,-0.037500000000000,-0.000010400000000,0.000628000000000,0.261000000000000,0.304000000000000,
109000.000000000000000,-0.000074800000000,-0.000071100000000,-0.000067500000000,-0.000000026500000,-0.000000151000000,0.000063000000000,0.000109000000000,-0.000008010000000,-0.000134000000000,0.035200000000000,0.000492000000000,-0.037500000000000,-0.000011700000000,0.000623000000000,0.261000000000000,0.304000000000000,
109000.000000000000000,-0.000074800000000,-0.000071000000000,-0.000067400000000,-0.000000023400000,-0.000000136000000,0.000063000000000,0.000109000000000,-0.000007960000000,-0.000134000000000,0.035100000000000,0.000494000000000,-0.037400000000000,-0.000004410000000,0.000632000000000,0.261000000000000,0.304000000000000,
110000.000000000000000,-0.000074800000000,-0.000071000000000,-0.000067400000000,-0.000000021500000,-0.000000153000000,0.000063000000000,0.000109000000000,-0.000007970000000,-0.000134000000000,0.035100000000000,0.000493000000000,-0.037300000000000,-0.000004740000000,0.000622000000000,0.261000000000000,0.304000000000000,
110000.000000000000000,-0.000074500000000,-0.000070700000000,-0.000067000000000,-0.000000022700000,-0.000000152000000,0.000063000000000,0.000109000000000,-0.000007650000000,-0.000134000000000,0.035000000000000,0.000490000000000,-0.037300000000000,-0.000004650000000,0.000620000000000,0.261000000000000,0.305000000000000,
110000.000000000000000,-0.000074600000000,-0.000070800000000,-0.000067100000000,-0.000000023100000,-0.000000098800000,0.000063000000000,0.000109000000000,-0.000007700000000,-0.000134000000000,0.035100000000000,0.000491000000000,-0.037300000000000,0.000007480000000,0.000647000000000,0.261000000000000,0.305000000000000,
110000.000000000000000,-0.000075000000000,-0.000071200000000,-0.000067500000000,-0.000000022500000,-0.000000012200000,0.000063000000000,0.000109000000000,-0.000008090000000,-0.000134000000000,0.035100000000000,0.000494000000000,-0.037300000000000,0.000028400000000,0.000693000000000,0.262000000000000,0.305000000000000,
110000.000000000000000,-0.000075400000000,-0.000071500000000,-0.000067900000000,-0.000000022300000,0.000000067200000,0.000063100000000,0.000109000000000,-0.000008460000000,-0.000135000000000,0.035100000000000,0.000497000000000,-0.037400000000000,0.000047200000000,0.000735000000000,0.262000000000000,0.305000000000000,
110000.000000000000000,-0.000075600000000,-0.000071700000000,-0.000068100000000,-0.000000022300000,0.000000107000000,0.000063100000000,0.000109000000000,-0.000008640000000,-0.000135000000000,0.035200000000000,0.000499000000000,-0.037500000000000,0.000056300000000,0.000755000000000,0.262000000000000,0.306000000000000,
110000.000000000000000,-0.000075700000000,-0.000071800000000,-0.000068200000000,-0.000000022500000,0.000000137000000,0.000063100000000,0.000109000000000,-0.000008740000000,-0.000135000000000,0.035300000000000,0.000500000000000,-0.037500000000000,0.000063300000000,0.000771000000000,0.262000000000000,0.306000000000000,
110000.000000000000000,-0.000075800000000,-0.000071900000000,-0.000068300000000,-0.000000022600000,0.000000171000000,0.000063100000000,0.000109000000000,-0.000008850000000,-0.000135000000000,0.035300000000000,0.000501000000000,-0.037600000000000,0.000071200000000,0.000791000000000,0.263000000000000,0.306000000000000,
110000.000000000000000,-0.000075800000000,-0.000071900000000,-0.000068300000000,-0.000000022800000,0.000000167000000,0.000063100000000,0.000109000000000,-0.000008820000000,-0.000135000000000,0.035400000000000,0.000501000000000,-0.037700000000000,0.000070600000000,0.000788000000000,0.263000000000000,0.306000000000000,
110000.000000000000000,-0.000075600000000,-0.000071700000000,-0.000068100000000,-0.000000023100000,0.000000117000000,0.000063100000000,0.000110000000000,-0.000008610000000,-0.000135000000000,0.035500000000000,0.000499000000000,-0.037800000000000,0.000058600000000,0.000761000000000,0.263000000000000,0.307000000000000,
111000.000000000000000,-0.000075400000000,-0.000071500000000,-0.000067800000000,-0.000000023300000,0.000000048300000,0.000063100000000,0.000110000000000,-0.000008320000000,-0.000135000000000,0.035600000000000,0.000497000000000,-0.037800000000000,0.000041800000000,0.000724000000000,0.263000000000000,0.307000000000000,
111000.000000000000000,-0.000075100000000,-0.000071300000000,-0.000067500000000,-0.000000023400000,-0.000000012100000,0.000063100000000,0.000110000000000,-0.000008070000000,-0.000135000000000,0.035700000000000,0.000495000000000,-0.037900000000000,0.000027700000000,0.000692000000000,0.264000000000000,0.307000000000000,
111000.000000000000000,-0.000075000000000,-0.000071100000000,-0.000067300000000,-0.000000023600000,-0.000000056500000,0.000063200000000,0.000110000000000,-0.000007890000000,-0.000134000000000,0.035800000000000,0.000493000000000,-0.038000000000000,0.000017300000000,0.000670000000000,0.264000000000000,0.308000000000000,
111000.000000000000000,-0.000074800000000,-0.000070900000000,-0.000067100000000,-0.000000023800000,-0.000000110000000,0.000063200000000,0.000110000000000,-0.000007670000000,-0.000134000000000,0.035900000000000,0.000492000000000,-0.038100000000000,0.000004460000000,0.000642000000000,0.264000000000000,0.308000000000000,
111000.000000000000000,-0.000074600000000,-0.000070700000000,-0.000066900000000,-0.000000024000000,-0.000000165000000,0.000063200000000,0.000110000000000,-0.000007430000000,-0.000134000000000,0.036000000000000,0.000490000000000,-0.038200000000000,-0.000008580000000,0.000613000000000,0.265000000000000,0.309000000000000,
111000.000000000000000,-0.000074500000000,-0.000070600000000,-0.000066800000000,-0.000000024300000,-0.000000176000000,0.000063200000000,0.000110000000000,-0.000007340000000,-0.000134000000000,0.036100000000000,0.000489000000000,-0.038300000000000,-0.000011600000000,0.000607000000000,0.265000000000000,0.309000000000000,
111000.000000000000000,-0.000074600000000,-0.000070700000000,-0.000066900000000,-0.000000024300000,-0.000000143000000,0.000063200000000,0.000110000000000,-0.000007410000000,-0.000134000000000,0.036200000000000,0.000490000000000,-0.038400000000000,-0.000004070000000,0.000624000000000,0.265000000000000,0.309000000000000,
111000.000000000000000,-0.000074800000000,-0.000070800000000,-0.000067000000000,-0.000000024200000,-0.000000100000000,0.000063200000000,0.000110000000000,-0.000007520000000,-0.000134000000000,0.036300000000000,0.000491000000000,-0.038500000000000,0.000006240000000,0.000647000000000,0.266000000000000,0.310000000000000,
111000.000000000000000,-0.000074900000000,-0.000070900000000,-0.000067100000000,-0.000000024100000,-0.000000059400000,0.000063200000000,0.000110000000000,-0.000007640000000,-0.000134000000000,0.036300000000000,0.000492000000000,-0.038600000000000,0.000016000000000,0.000667000000000,0.266000000000000,0.310000000000000,
111000.000000000000000,-0.000075100000000,-0.000071100000000,-0.000067300000000,-0.000000024000000,-0.000000011200000,0.000063300000000,0.000110000000000,-0.000007800000000,-0.000135000000000,0.036400000000000,0.000494000000000,-0.038700000000000,0.000027600000000,0.000692000000000,0.266000000000000,0.310000000000000,
112000.000000000000000,-0.000075300000000,-0.000071300000000,-0.000067500000000,-0.000000024000000,0.000000060100000,0.000063300000000,0.000110000000000,-0.000008030000000,-0.000135000000000,0.036500000000000,0.000497000000000,-0.038800000000000,0.000044900000000,0.000730000000000,0.266000000000000,0.311000000000000,
112000.000000000000000,-0.000075500000000,-0.000071500000000,-0.000067700000000,-0.000000024100000,0.000000128000000,0.000063300000000,0.000110000000000,-0.000008210000000,-0.000135000000000,0.036600000000000,0.000499000000000,-0.038900000000000,0.000061300000000,0.000767000000000,0.267000000000000,0.311000000000000,
112000.000000000000000,-0.000075600000000,-0.000071600000000,-0.000067700000000,-0.000000024300000,0.000000155000000,0.000063300000000,0.000110000000000,-0.000008230000000,-0.000135000000000,0.036700000000000,0.000499000000000,-0.038900000000000,0.000067900000000,0.000781000000000,0.267000000000000,0.311000000000000,
112000.000000000000000,-0.000075500000000,-0.000071500000000,-0.000067600000000,-0.000000024400000,0.000000149000000,0.000063300000000,0.000110000000000,-0.000008130000000,-0.000135000000000,0.036800000000000,0.000498000000000,-0.039000000000000,0.000066400000000,0.000777000000000,0.267000000000000,0.312000000000000,
112000.000000000000000,-0.000075400000000,-0.000071400000000,-0.000067600000000,-0.000000024100000,0.000000132000000,0.000063300000000,0.000110000000000,-0.000008050000000,-0.000135000000000,0.036800000000000,0.000497000000000,-0.039100000000000,0.000062500000000,0.000768000000000,0.267000000000000,0.312000000000000,
112000.000000000000000,-0.000075400000000,-0.000071400000000,-0.000067500000000,-0.000000023600000,0.000000107000000,0.000063300000000,0.000110000000000,-0.000007980000000,-0.000135000000000,0.036800000000000,0.000497000000000,-0.039100000000000,0.000056900000000,0.000754000000000,0.268000000000000,0.312000000000000,
112000.000000000000000,-0.000075200000000,-0.000071200000000,-0.000067300000000,-0.000000023600000,0.000000064400000,0.000063300000000,0.000110000000000,-0.000007830000000,-0.000135000000000,0.036900000000000,0.000496000000000,-0.039100000000000,0.000046900000000,0.000733000000000,0.268000000000000,0.312000000000000,
112000.000000000000000,-0.000074900000000,-0.000070900000000,-0.000067000000000,-0.000000024200000,-0.000000006900000,0.000063300000000,0.000110000000000,-0.000007510000000,-0.000134000000000,0.036900000000000,0.000494000000000,-0.039100000000000,0.000030000000000,0.000695000000000,0.268000000000000,0.313000000000000,
112000.000000000000000,-0.000074600000000,-0.000070600000000,-0.000066600000000,-0.000000024700000,-0.000000076100000,0.000063400000000,0.000110000000000,-0.000007130000000,-0.000134000000000,0.036900000000000,0.000490000000000,-0.039100000000000,0.000013500000000,0.000658000000000,0.268000000000000,0.313000000000000,
112000.000000000000000,-0.000074400000000,-0.000070400000000,-0.000066400000000,-0.000000024600000,-0.000000112000000,0.000063400000000,0.000110000000000,-0.000006890000000,-0.000134000000000,0.037000000000000,0.000487000000000,-0.039200000000000,0.000005150000000,0.000640000000000,0.268000000000000,0.313000000000000,
113000.000000000000000,-0.000074300000000,-0.000070300000000,-0.000066300000000,-0.000000024200000,-0.000000128000000,0.000063400000000,0.000110000000000,-0.000006800000000,-0.000134000000000,0.037000000000000,0.000486000000000,-0.039200000000000,0.000001680000000,0.000632000000000,0.269000000000000,0.313000000000000,
113000.000000000000000,-0.000074300000000,-0.000070200000000,-0.000066200000000,-0.000000023700000,-0.000000144000000,0.000063400000000,0.000110000000000,-0.000006740000000,-0.000134000000000,0.037100000000000,0.000486000000000,-0.039300000000000,-0.000001810000000,0.000623000000000,0.269000000000000,0.314000000000000,
113000.000000000000000,-0.000074300000000,-0.000070200000000,-0.000066200000000,-0.000000023700000,-0.000000145000000,0.000063400000000,0.000110000000000,-0.000006720000000,-0.000134000000000,0.037100000000000,0.000486000000000,-0.039300000000000,-0.000002520000000,0.000622000000000,0.269000000000000,0.314000000000000,
113000.000000000000000,-0.000074400000000,-0.000070300000000,-0.000066300000000,-0.000000023900000,-0.000000118000000,0.000063400000000,0.000110000000000,-0.000006800000000,-0.000134000000000,0.037200000000000,0.000488000000000,-0.039400000000000,0.000004360000000,0.000636000000000,0.269000000000000,0.314000000000000,
113000.000000000000000,-0.000074500000000,-0.000070400000000,-0.000066400000000,-0.000000024100000,-0.000000061000000,0.000063400000000,0.000110000000000,-0.000006930000000,-0.000134000000000,0.037300000000000,0.000489000000000,-0.039500000000000,0.000018200000000,0.000666000000000,0.270000000000000,0.315000000000000,
113000.000000000000000,-0.000074700000000,-0.000070600000000,-0.000066600000000,-0.000000024300000,-0.000000002440000,0.000063400000000,0.000110000000000,-0.000007060000000,-0.000134000000000,0.037400000000000,0.000491000000000,-0.039600000000000,0.000032500000000,0.000697000000000,0.270000000000000,0.315000000000000,
113000.000000000000000,-0.000074800000000,-0.000070700000000,-0.000066700000000,-0.000000024300000,0.000000037400000,0.000063400000000,0.000110000000000,-0.000007160000000,-0.000134000000000,0.037500000000000,0.000491000000000,-0.039700000000000,0.000042200000000,0.000717000000000,0.270000000000000,0.315000000000000,
113000.000000000000000,-0.000074900000000,-0.000070800000000,-0.000066800000000,-0.000000024200000,0.000000074800000,0.000063500000000,0.000110000000000,-0.000007260000000,-0.000134000000000,0.037600000000000,0.000492000000000,-0.039800000000000,0.000051300000000,0.000736000000000,0.271000000000000,0.316000000000000,
113000.000000000000000,-0.000075100000000,-0.000070900000000,-0.000066900000000,-0.000000024000000,0.000000116000000,0.000063500000000,0.000110000000000,-0.000007390000000,-0.000135000000000,0.037700000000000,0.000494000000000,-0.039900000000000,0.000061500000000,0.000758000000000,0.271000000000000,0.316000000000000,
113000.000000000000000,-0.000075200000000,-0.000071000000000,-0.000067000000000,-0.000000023800000,0.000000136000000,0.000063500000000,0.000110000000000,-0.000007450000000,-0.000135000000000,0.037700000000000,0.000495000000000,-0.040000000000000,0.000066700000000,0.000768000000000,0.271000000000000,0.316000000000000,
114000.000000000000000,-0.000075100000000,-0.000070900000000,-0.000066900000000,-0.000000023900000,0.000000121000000,0.000063500000000,0.000110000000000,-0.000007350000000,-0.000135000000000,0.037800000000000,0.000494000000000,-0.040100000000000,0.000063000000000,0.000760000000000,0.271000000000000,0.317000000000000,
114000.000000000000000,-0.000074900000000,-0.000070700000000,-0.000066700000000,-0.000000024100000,0.000000082700000,0.000063500000000,0.000110000000000,-0.000007140000000,-0.000134000000000,0.037900000000000,0.000493000000000,-0.040200000000000,0.000053700000000,0.000740000000000,0.272000000000000,0.317000000000000,
114000.000000000000000,-0.000074700000000,-0.000070500000000,-0.000066500000000,-0.000000024400000,0.000000041700000,0.000063500000000,0.000110000000000,-0.000006920000000,-0.000134000000000,0.038000000000000,0.000491000000000,-0.040300000000000,0.000043700000000,0.000719000000000,0.272000000000000,0.317000000000000,
114000.000000000000000,-0.000074500000000,-0.000070400000000,-0.000066300000000,-0.000000024400000,0.000000003690000,0.000063500000000,0.000110000000000,-0.000006720000000,-0.000134000000000,0.038100000000000,0.000490000000000,-0.040300000000000,0.000034600000000,0.000699000000000,0.272000000000000,0.318000000000000,
114000.000000000000000,-0.000074300000000,-0.000070100000000,-0.000066000000000,-0.000000024300000,-0.000000047000000,0.000063600000000,0.000110000000000,-0.000006470000000,-0.000134000000000,0.038200000000000,0.000487000000000,-0.040400000000000,0.000022500000000,0.000673000000000,0.273000000000000,0.318000000000000,
114000.000000000000000,-0.000074100000000,-0.000069900000000,-0.000065800000000,-0.000000024000000,-0.000000101000000,0.000063600000000,0.000110000000000,-0.000006240000000,-0.000134000000000,0.038300000000000,0.000485000000000,-0.040500000000000,0.000009260000000,0.000644000000000,0.273000000000000,0.318000000000000,
114000.000000000000000,-0.000074000000000,-0.000069900000000,-0.000065700000000,-0.000000023800000,-0.000000132000000,0.000063600000000,0.000110000000000,-0.000006140000000,-0.000134000000000,0.038400000000000,0.000485000000000,-0.040600000000000,0.000001850000000,0.000628000000000,0.273000000000000,0.319000000000000,
114000.000000000000000,-0.000074000000000,-0.000069800000000,-0.000065700000000,-0.000000023500000,-0.000000136000000,0.000063600000000,0.000110000000000,-0.000006110000000,-0.000134000000000,0.038500000000000,0.000485000000000,-0.040700000000000,0.000001570000000,0.000626000000000,0.273000000000000,0.319000000000000,
114000.000000000000000,-0.000074000000000,-0.000069800000000,-0.000065600000000,-0.000000023600000,-0.000000120000000,0.000063600000000,0.000110000000000,-0.000006090000000,-0.000134000000000,0.038600000000000,0.000485000000000,-0.040700000000000,0.000005440000000,0.000634000000000,0.274000000000000,0.319000000000000,
114000.000000000000000,-0.000074000000000,-0.000069800000000,-0.000065600000000,-0.000000024000000,-0.000000101000000,0.000063600000000,0.000110000000000,-0.000006030000000,-0.000134000000000,0.038600000000000,0.000485000000000,-0.040800000000000,0.000010200000000,0.000644000000000,0.274000000000000,0.320000000000000,
115000.000000000000000,-0.000074000000000,-0.000069800000000,-0.000065500000000,-0.000000024100000,-0.000000070700000,0.000063600000000,0.000110000000000,-0.000006000000000,-0.000134000000000,0.038600000000000,0.000485000000000,-0.040800000000000,0.000017900000000,0.000659000000000,0.274000000000000,0.320000000000000,
115000.000000000000000,-0.000074100000000,-0.000069900000000,-0.000065600000000,-0.000000023900000,-0.000000018900000,0.000063600000000,0.000110000000000,-0.000006110000000,-0.000134000000000,0.038700000000000,0.000485000000000,-0.040900000000000,0.000031100000000,0.000686000000000,0.274000000000000,0.320000000000000,
115000.000000000000000,-0.000074300000000,-0.000070100000000,-0.000065900000000,-0.000000023500000,0.000000035600000,0.000063600000000,0.000110000000000,-0.000006320000000,-0.000134000000000,0.038700000000000,0.000487000000000,-0.040900000000000,0.000045000000000,0.000715000000000,0.274000000000000,0.320000000000000,
115000.000000000000000,-0.000074500000000,-0.000070300000000,-0.000066000000000,-0.000000022900000,0.000000066900000,0.000063600000000,0.000110000000000,-0.000006520000000,-0.000134000000000,0.038700000000000,0.000489000000000,-0.040900000000000,0.000053300000000,0.000730000000000,0.275000000000000,0.320000000000000,
115000.000000000000000,-0.000074600000000,-0.000070300000000,-0.000066100000000,-0.000000022800000,0.000000082600000,0.000063600000000,0.000110000000000,-0.000006560000000,-0.000134000000000,0.038700000000000,0.000490000000000,-0.040900000000000,0.000057200000000,0.000738000000000,0.275000000000000,0.321000000000000,
115000.000000000000000,-0.000074500000000,-0.000070200000000,-0.000066000000000,-0.000000023000000,0.000000087400000,0.000063700000000,0.000111000000000,-0.000006450000000,-0.000134000000000,0.038700000000000,0.000490000000000,-0.040900000000000,0.000058700000000,0.000740000000000,0.275000000000000,0.321000000000000,
115000.000000000000000,-0.000074400000000,-0.000070100000000,-0.000065800000000,-0.000000023400000,0.000000083600000,0.000063700000000,0.000111000000000,-0.000006280000000,-0.000134000000000,0.038800000000000,0.000489000000000,-0.041000000000000,0.000058100000000,0.000739000000000,0.275000000000000,0.321000000000000,
115000.000000000000000,-0.000074200000000,-0.000069900000000,-0.000065600000000,-0.000000023500000,0.000000057600000,0.000063700000000,0.000111000000000,-0.000006110000000,-0.000134000000000,0.038800000000000,0.000487000000000,-0.041000000000000,0.000052000000000,0.000725000000000,0.275000000000000,0.321000000000000,
115000.000000000000000,-0.000074000000000,-0.000069700000000,-0.000065400000000,-0.000000023200000,0.000000008060000,0.000063700000000,0.000111000000000,-0.000005870000000,-0.000134000000000,0.038900000000000,0.000484000000000,-0.041100000000000,0.000040100000000,0.000699000000000,0.276000000000000,0.321000000000000,
115000.000000000000000,-0.000073900000000,-0.000069500000000,-0.000065200000000,-0.000000022800000,-0.000000043000000,0.000063700000000,0.000111000000000,-0.000005690000000,-0.000133000000000,0.038900000000000,0.000482000000000,-0.041100000000000,0.000027800000000,0.000672000000000,0.276000000000000,0.322000000000000,
116000.000000000000000,-0.000073800000000,-0.000069500000000,-0.000065100000000,-0.000000022500000,-0.000000078400000,0.000063700000000,0.000111000000000,-0.000005600000000,-0.000133000000000,0.039000000000000,0.000481000000000,-0.041200000000000,0.000019200000000,0.000654000000000,0.276000000000000,0.322000000000000,
116000.000000000000000,-0.000073700000000,-0.000069400000000,-0.000065000000000,-0.000000022500000,-0.000000107000000,0.000063700000000,0.000111000000000,-0.000005510000000,-0.000133000000000,0.039100000000000,0.000481000000000,-0.041200000000000,0.000012200000000,0.000639000000000,0.276000000000000,0.322000000000000,
116000.000000000000000,-0.000073600000000,-0.000069200000000,-0.000064900000000,-0.000000022800000,-0.000000133000000,0.000063700000000,0.000111000000000,-0.000005340000000,-0.000133000000000,0.039100000000000,0.000480000000000,-0.041300000000000,0.000005490000000,0.000625000000000,0.277000000000000,0.323000000000000,
116000.000000000000000,-0.000073500000000,-0.000069100000000,-0.000064700000000,-0.000000023200000,-0.000000145000000,0.000063700000000,0.000111000000000,-0.000005210000000,-0.000133000000000,0.039200000000000,0.000478000000000,-0.041400000000000,0.000002200000000,0.000618000000000,0.277000000000000,0.323000000000000,
116000.000000000000000,-0.000073500000000,-0.000069100000000,-0.000064700000000,-0.000000023500000,-0.000000131000000,0.000063800000000,0.000111000000000,-0.000005200000000,-0.000133000000000,0.039300000000000,0.000478000000000,-0.041500000000000,0.000005880000000,0.000626000000000,0.277000000000000,0.323000000000000,
116000.000000000000000,-0.000073600000000,-0.000069200000000,-0.000064800000000,-0.000000023600000,-0.000000093100000,0.000063800000000,0.000111000000000,-0.000005300000000,-0.000133000000000,0.039400000000000,0.000479000000000,-0.041600000000000,0.000015100000000,0.000646000000000,0.277000000000000,0.324000000000000,
116000.000000000000000,-0.000073700000000,-0.000069400000000,-0.000065000000000,-0.000000023500000,-0.000000054700000,0.000063800000000,0.000111000000000,-0.000005410000000,-0.000133000000000,0.039500000000000,0.000480000000000,-0.041600000000000,0.000024600000000,0.000665000000000,0.278000000000000,0.324000000000000,
116000.000000000000000,-0.000073900000000,-0.000069500000000,-0.000065100000000,-0.000000023400000,-0.000000019500000,0.000063800000000,0.000111000000000,-0.000005520000000,-0.000133000000000,0.039500000000000,0.000481000000000,-0.041700000000000,0.000033300000000,0.000683000000000,0.278000000000000,0.324000000000000,
116000.000000000000000,-0.000074000000000,-0.000069600000000,-0.000065200000000,-0.000000023400000,0.000000018000000,0.000063800000000,0.000111000000000,-0.000005640000000,-0.000134000000000,0.039600000000000,0.000483000000000,-0.041800000000000,0.000042900000000,0.000702000000000,0.278000000000000,0.325000000000000,
116000.000000000000000,-0.000074100000000,-0.000069700000000,-0.000065300000000,-0.000000023500000,0.000000058500000,0.000063800000000,0.000111000000000,-0.000005720000000,-0.000134000000000,0.039700000000000,0.000484000000000,-0.041900000000000,0.000053100000000,0.000723000000000,0.278000000000000,0.325000000000000,
117000.000000000000000,-0.000074100000000,-0.000069700000000,-0.000065300000000,-0.000000023900000,0.000000082200000,0.000063800000000,0.000111000000000,-0.000005730000000,-0.000134000000000,0.039800000000000,0.000485000000000,-0.042000000000000,0.000058900000000,0.000736000000000,0.279000000000000,0.325000000000000,
117000.000000000000000,-0.000074100000000,-0.000069700000000,-0.000065200000000,-0.000000024200000,0.000000078500000,0.000063900000000,0.000111000000000,-0.000005650000000,-0.000134000000000,0.039900000000000,0.000484000000000,-0.042100000000000,0.000057800000000,0.000733000000000,0.279000000000000,0.326000000000000,
117000.000000000000000,-0.000074000000000,-0.000069500000000,-0.000065100000000,-0.000000024200000,0.000000058200000,0.000063900000000,0.000111000000000,-0.000005520000000,-0.000134000000000,0.040000000000000,0.000483000000000,-0.042200000000000,0.000052900000000,0.000723000000000,0.279000000000000,0.326000000000000,
117000.000000000000000,-0.000073900000000,-0.000069500000000,-0.000065000000000,-0.000000023900000,0.000000034300000,0.000063900000000,0.000111000000000,-0.000005420000000,-0.000133000000000,0.040100000000000,0.000482000000000,-0.042300000000000,0.000047100000000,0.000710000000000,0.280000000000000,0.326000000000000,
117000.000000000000000,-0.000073800000000,-0.000069400000000,-0.000064900000000,-0.000000023500000,0.000000002700000,0.000063900000000,0.000111000000000,-0.000005300000000,-0.000133000000000,0.040200000000000,0.000481000000000,-0.042400000000000,0.000039400000000,0.000694000000000,0.280000000000000,0.327000000000000,
117000.000000000000000,-0.000073700000000,-0.000069200000000,-0.000064700000000,-0.000000023300000,-0.000000040700000,0.000063900000000,0.000111000000000,-0.000005120000000,-0.000133000000000,0.040300000000000,0.000480000000000,-0.042500000000000,0.000028400000000,0.000671000000000,0.280000000000000,0.327000000000000,
117000.000000000000000,-0.000073500000000,-0.000069000000000,-0.000064500000000,-0.000000023400000,-0.000000087400000,0.000063900000000,0.000111000000000,-0.000004910000000,-0.000133000000000,0.040400000000000,0.000478000000000,-0.042600000000000,0.000016500000000,0.000647000000000,0.281000000000000,0.328000000000000,
117000.000000000000000,-0.000073300000000,-0.000068900000000,-0.000064300000000,-0.000000023700000,-0.000000120000000,0.000063900000000,0.000111000000000,-0.000004720000000,-0.000133000000000,0.040500000000000,0.000477000000000,-0.042700000000000,0.000008490000000,0.000630000000000,0.281000000000000,0.328000000000000,
117000.000000000000000,-0.000073300000000,-0.000068800000000,-0.000064200000000,-0.000000023800000,-0.000000128000000,0.000064000000000,0.000111000000000,-0.000004620000000,-0.000133000000000,0.040700000000000,0.000476000000000,-0.042800000000000,0.000006270000000,0.000625000000000,0.281000000000000,0.328000000000000,
117000.000000000000000,-0.000073300000000,-0.000068800000000,-0.000064200000000,-0.000000023800000,-0.000000125000000,0.000064000000000,0.000111000000000,-0.000004580000000,-0.000133000000000,0.040800000000000,0.000476000000000,-0.042900000000000,0.000007100000000,0.000627000000000,0.282000000000000,0.329000000000000,
118000.000000000000000,-0.000073300000000,-0.000068800000000,-0.000064200000000,-0.000000023700000,-0.000000115000000,0.000064000000000,0.000111000000000,-0.000004590000000,-0.000133000000000,0.040900000000000,0.000476000000000,-0.043000000000000,0.000009760000000,0.000632000000000,0.282000000000000,0.329000000000000,
118000.000000000000000,-0.000073400000000,-0.000068900000000,-0.000064300000000,-0.000000023500000,-0.000000088900000,0.000064000000000,0.000111000000000,-0.000004670000000,-0.000133000000000,0.041000000000000,0.000477000000000,-0.043100000000000,0.000016300000000,0.000645000000000,0.282000000000000,0.329000000000000,
118000.000000000000000,-0.000073500000000,-0.000069000000000,-0.000064400000000,-0.000000023500000,-0.000000045600000,0.000064000000000,0.000111000000000,-0.000004810000000,-0.000133000000000,0.041100000000000,0.000478000000000,-0.043200000000000,0.000027300000000,0.000667000000000,0.283000000000000,0.330000000000000,
118000.000000000000000,-0.000073700000000,-0.000069200000000,-0.000064600000000,-0.000000023800000,-0.000000000112000,0.000064000000000,0.000111000000000,-0.000004940000000,-0.000133000000000,0.041100000000000,0.000480000000000,-0.043300000000000,0.000038800000000,0.000691000000000,0.283000000000000,0.330000000000000,
118000.000000000000000,-0.000073800000000,-0.000069200000000,-0.000064700000000,-0.000000024100000,0.000000033400000,0.000064000000000,0.000111000000000,-0.000005000000000,-0.000133000000000,0.041200000000000,0.000481000000000,-0.043400000000000,0.000047200000000,0.000708000000000,0.283000000000000,0.330000000000000,
118000.000000000000000,-0.000073800000000,-0.000069200000000,-0.000064700000000,-0.000000024500000,0.000000054700000,0.000064100000000,0.000111000000000,-0.000005010000000,-0.000133000000000,0.041300000000000,0.000481000000000,-0.043500000000000,0.000052500000000,0.000718000000000,0.283000000000000,0.331000000000000,
118000.000000000000000,-0.000073800000000,-0.000069200000000,-0.000064700000000,-0.000000024700000,0.000000069100000,0.000064100000000,0.000111000000000,-0.000005000000000,-0.000133000000000,0.041400000000000,0.000481000000000,-0.043600000000000,0.000056100000000,0.000726000000000,0.284000000000000,0.331000000000000,
118000.000000000000000,-0.000073800000000,-0.000069200000000,-0.000064600000000,-0.000000024500000,0.000000072300000,0.000064100000000,0.000111000000000,-0.000004980000000,-0.000133000000000,0.041500000000000,0.000481000000000,-0.043700000000000,0.000057100000000,0.000728000000000,0.284000000000000,0.331000000000000,
118000.000000000000000,-0.000073800000000,-0.000069200000000,-0.000064600000000,-0.000000024300000,0.000000055400000,0.000064100000000,0.000111000000000,-0.000004920000000,-0.000133000000000,0.041600000000000,0.000480000000000,-0.043700000000000,0.000052900000000,0.000719000000000,0.284000000000000,0.332000000000000,
118000.000000000000000,-0.000073700000000,-0.000069100000000,-0.000064500000000,-0.000000024200000,0.000000020900000,0.000064100000000,0.000111000000000,-0.000004790000000,-0.000133000000000,0.041700000000000,0.000479000000000,-0.043800000000000,0.000043900000000,0.000701000000000,0.284000000000000,0.332000000000000,
119000.000000000000000,-0.000073500000000,-0.000068900000000,-0.000064300000000,-0.000000024200000,-0.000000018000000,0.000064100000000,0.000111000000000,-0.000004610000000,-0.000133000000000,0.041700000000000,0.000478000000000,-0.043900000000000,0.000033900000000,0.000681000000000,0.285000000000000,0.332000000000000,
119000.000000000000000,-0.000073300000000,-0.000068700000000,-0.000064100000000,-0.000000024400000,-0.000000051300000,0.000064100000000,0.000111000000000,-0.000004410000000,-0.000133000000000,0.041800000000000,0.000477000000000,-0.044000000000000,0.000025300000000,0.000663000000000,0.285000000000000,0.333000000000000,
119000.000000000000000,-0.000073200000000,-0.000068600000000,-0.000063900000000,-0.000000024700000,-0.000000082300000,0.000064100000000,0.000111000000000,-0.000004200000000,-0.000133000000000,0.041900000000000,0.000475000000000,-0.044100000000000,0.000017300000000,0.000647000000000,0.285000000000000,0.333000000000000,
119000.000000000000000,-0.000073000000000,-0.000068400000000,-0.000063700000000,-0.000000024700000,-0.000000111000000,0.000064200000000,0.000111000000000,-0.000004000000000,-0.000133000000000,0.042000000000000,0.000474000000000,-0.044100000000000,0.000010100000000,0.000633000000000,0.285000000000000,0.333000000000000,
119000.000000000000000,-0.000072900000000,-0.000068300000000,-0.000063600000000,-0.000000024600000,-0.000000125000000,0.000064200000000,0.000111000000000,-0.000003890000000,-0.000133000000000,0.042100000000000,0.000473000000000,-0.044200000000000,0.000006270000000,0.000625000000000,0.286000000000000,0.334000000000000,
119000.000000000000000,-0.000072900000000,-0.000068300000000,-0.000063600000000,-0.000000024200000,-0.000000118000000,0.000064200000000,0.000111000000000,-0.000003920000000,-0.000133000000000,0.042100000000000,0.000473000000000,-0.044300000000000,0.000008210000000,0.000629000000000,0.286000000000000,0.334000000000000,
119000.000000000000000,-0.000073100000000,-0.000068400000000,-0.000063700000000,-0.000000023900000,-0.000000095900000,0.000064200000000,0.000111000000000,-0.000004030000000,-0.000133000000000,0.042200000000000,0.000475000000000,-0.044300000000000,0.000014200000000,0.000640000000000,0.286000000000000,0.334000000000000,
119000.000000000000000,-0.000073200000000,-0.000068500000000,-0.000063800000000,-0.000000024000000,-0.000000068100000,0.000064200000000,0.000111000000000,-0.000004120000000,-0.000133000000000,0.042300000000000,0.000476000000000,-0.044400000000000,0.000021400000000,0.000654000000000,0.286000000000000,0.334000000000000,
119000.000000000000000,-0.000073200000000,-0.000068600000000,-0.000063900000000,-0.000000024500000,-0.000000037700000,0.000064200000000,0.000112000000000,-0.000004160000000,-0.000133000000000,0.042300000000000,0.000476000000000,-0.044500000000000,0.000029000000000,0.000669000000000,0.287000000000000,0.335000000000000,
119000.000000000000000,-0.000073300000000,-0.000068600000000,-0.000063900000000,-0.000000025100000,-0.000000000998000,0.000064200000000,0.000112000000000,-0.000004190000000,-0.000133000000000,0.042400000000000,0.000476000000000,-0.044600000000000,0.000038200000000,0.000687000000000,0.287000000000000,0.335000000000000,
120000.000000000000000,-0.000073300000000,-0.000068700000000,-0.000063900000000,-0.000000025500000,0.000000036600000,0.000064200000000,0.000112000000000,-0.000004230000000,-0.000133000000000,0.042500000000000,0.000476000000000,-0.044600000000000,0.000047700000000,0.000707000000000,0.287000000000000,0.335000000000000,
120000.000000000000000,-0.000073400000000,-0.000068700000000,-0.000063900000000,-0.000000025500000,0.000000059400000,0.000064200000000,0.000112000000000,-0.000004240000000,-0.000133000000000,0.042500000000000,0.000476000000000,-0.044700000000000,0.000053800000000,0.000718000000000,0.287000000000000,0.336000000000000,
120000.000000000000000,-0.000073400000000,-0.000068700000000,-0.000063900000000,-0.000000025100000,0.000000062300000,0.000064300000000,0.000112000000000,-0.000004200000000,-0.000133000000000,0.042600000000000,0.000477000000000,-0.044800000000000,0.000054800000000,0.000720000000000,0.288000000000000,0.336000000000000,
120000.000000000000000,-0.000073300000000,-0.000068600000000,-0.000063800000000,-0.000000024700000,0.000000052900000,0.000064300000000,0.000112000000000,-0.000004130000000,-0.000133000000000,0.042700000000000,0.000477000000000,-0.044800000000000,0.000052700000000,0.000715000000000,0.288000000000000,0.336000000000000,
120000.000000000000000,-0.000073200000000,-0.000068500000000,-0.000063800000000,-0.000000024400000,0.000000036500000,0.000064300000000,0.000112000000000,-0.000004050000000,-0.000133000000000,0.042800000000000,0.000477000000000,-0.044900000000000,0.000048700000000,0.000706000000000,0.288000000000000,0.336000000000000,
120000.000000000000000,-0.000073200000000,-0.000068400000000,-0.000063600000000,-0.000000024300000,0.000000010700000,0.000064300000000,0.000112000000000,-0.000003930000000,-0.000133000000000,0.042900000000000,0.000476000000000,-0.045000000000000,0.000042200000000,0.000693000000000,0.288000000000000,0.337000000000000,
120000.000000000000000,-0.000073000000000,-0.000068300000000,-0.000063500000000,-0.000000024400000,-0.000000027100000,0.000064300000000,0.000112000000000,-0.000003770000000,-0.000133000000000,0.042900000000000,0.000474000000000,-0.045100000000000,0.000032300000000,0.000673000000000,0.289000000000000,0.337000000000000,
120000.000000000000000,-0.000072900000000,-0.000068100000000,-0.000063300000000,-0.000000024700000,-0.000000066200000,0.000064300000000,0.000112000000000,-0.000003590000000,-0.000133000000000,0.043000000000000,0.000472000000000,-0.045200000000000,0.000021800000000,0.000653000000000,0.289000000000000,0.337000000000000,
120000.000000000000000,-0.000072700000000,-0.000068000000000,-0.000063100000000,-0.000000024800000,-0.000000093000000,0.000064300000000,0.000112000000000,-0.000003420000000,-0.000132000000000,0.043100000000000,0.000471000000000,-0.045300000000000,0.000014600000000,0.000639000000000,0.289000000000000,0.338000000000000,
120000.000000000000000,-0.000072600000000,-0.000067900000000,-0.000063000000000,-0.000000024700000,-0.000000107000000,0.000064300000000,0.000112000000000,-0.000003290000000,-0.000132000000000,0.043200000000000,0.000470000000000,-0.045400000000000,0.000011100000000,0.000632000000000,0.289000000000000,0.338000000000000,
121000.000000000000000,-0.000072600000000,-0.000067800000000,-0.000062900000000,-0.000000024500000,-0.000000113000000,0.000064400000000,0.000112000000000,-0.000003220000000,-0.000132000000000,0.043300000000000,0.000470000000000,-0.045500000000000,0.000009640000000,0.000629000000000,0.290000000000000,0.338000000000000,
121000.000000000000000,-0.000072600000000,-0.000067800000000,-0.000062900000000,-0.000000024400000,-0.000000110000000,0.000064400000000,0.000112000000000,-0.000003210000000,-0.000132000000000,0.043400000000000,0.000470000000000,-0.045600000000000,0.000010400000000,0.000630000000000,0.290000000000000,0.339000000000000,
121000.000000000000000,-0.000072700000000,-0.000067900000000,-0.000063000000000,-0.000000024600000,-0.000000092000000,0.000064400000000,0.000112000000000,-0.000003270000000,-0.000132000000000,0.043500000000000,0.000471000000000,-0.045700000000000,0.000015000000000,0.000639000000000,0.290000000000000,0.339000000000000,
121000.000000000000000,-0.000072800000000,-0.000068000000000,-0.000063100000000,-0.000000024800000,-0.000000056600000,0.000064400000000,0.000112000000000,-0.000003370000000,-0.000133000000000,0.043600000000000,0.000472000000000,-0.045800000000000,0.000024000000000,0.000657000000000,0.291000000000000,0.339000000000000,
121000.000000000000000,-0.000072900000000,-0.000068100000000,-0.000063200000000,-0.000000025100000,-0.000000018500000,0.000064400000000,0.000112000000000,-0.000003460000000,-0.000133000000000,0.043700000000000,0.000473000000000,-0.045900000000000,0.000033800000000,0.000677000000000,0.291000000000000,0.340000000000000,
121000.000000000000000,-0.000073000000000,-0.000068200000000,-0.000063300000000,-0.000000025200000,0.000000011100000,0.000064400000000,0.000112000000000,-0.000003510000000,-0.000133000000000,0.043800000000000,0.000474000000000,-0.046000000000000,0.000041500000000,0.000692000000000,0.291000000000000,0.340000000000000,
121000.000000000000000,-0.000073000000000,-0.000068200000000,-0.000063300000000,-0.000000025400000,0.000000035300000,0.000064400000000,0.000112000000000,-0.000003540000000,-0.000133000000000,0.043900000000000,0.000475000000000,-0.046100000000000,0.000047800000000,0.000704000000000,0.291000000000000,0.341000000000000,
121000.000000000000000,-0.000073100000000,-0.000068300000000,-0.000063400000000,-0.000000025500000,0.000000055300000,0.000064500000000,0.000112000000000,-0.000003590000000,-0.000133000000000,0.044000000000000,0.000475000000000,-0.046200000000000,0.000053100000000,0.000714000000000,0.292000000000000,0.341000000000000,
121000.000000000000000,-0.000073100000000,-0.000068300000000,-0.000063400000000,-0.000000025700000,0.000000064800000,0.000064500000000,0.000112000000000,-0.000003600000000,-0.000133000000000,0.044100000000000,0.000475000000000,-0.046300000000000,0.000055500000000,0.000719000000000,0.292000000000000,0.341000000000000,
121000.000000000000000,-0.000073100000000,-0.000068200000000,-0.000063300000000,-0.000000025700000,0.000000056900000,0.000064500000000,0.000112000000000,-0.000003540000000,-0.000133000000000,0.044200000000000,0.000475000000000,-0.046400000000000,0.000053300000000,0.000715000000000,0.292000000000000,0.342000000000000,
122000.000000000000000,-0.000073000000000,-0.000068100000000,-0.000063200000000,-0.000000025500000,0.000000032200000,0.000064500000000,0.000112000000000,-0.000003420000000,-0.000133000000000,0.044300000000000,0.000474000000000,-0.046500000000000,0.000046800000000,0.000702000000000,0.293000000000000,0.342000000000000,
122000.000000000000000,-0.000072900000000,-0.000068000000000,-0.000063100000000,-0.000000025500000,0.000000002490000,0.000064500000000,0.000112000000000,-0.000003290000000,-0.000133000000000,0.044400000000000,0.000473000000000,-0.046600000000000,0.000039000000000,0.000687000000000,0.293000000000000,0.342000000000000,
122000.000000000000000,-0.000072800000000,-0.000067900000000,-0.000063000000000,-0.000000025500000,-0.000000025600000,0.000064500000000,0.000112000000000,-0.000003160000000,-0.000133000000000,0.044500000000000,0.000472000000000,-0.046700000000000,0.000031500000000,0.000673000000000,0.293000000000000,0.343000000000000,
122000.000000000000000,-0.000072700000000,-0.000067800000000,-0.000062800000000,-0.000000025500000,-0.000000055800000,0.000064500000000,0.000112000000000,-0.000003020000000,-0.000132000000000,0.044600000000000,0.000471000000000,-0.046800000000000,0.000023500000000,0.000657000000000,0.293000000000000,0.343000000000000,
122000.000000000000000,-0.000072500000000,-0.000067700000000,-0.000062700000000,-0.000000025500000,-0.000000084800000,0.000064600000000,0.000112000000000,-0.000002860000000,-0.000132000000000,0.044800000000000,0.000470000000000,-0.046900000000000,0.000015800000000,0.000642000000000,0.294000000000000,0.343000000000000,
122000.000000000000000,-0.000072500000000,-0.000067600000000,-0.000062600000000,-0.000000025500000,-0.000000102000000,0.000064600000000,0.000112000000000,-0.000002760000000,-0.000132000000000,0.044900000000000,0.000469000000000,-0.047000000000000,0.000011100000000,0.000633000000000,0.294000000000000,0.344000000000000,
122000.000000000000000,-0.000072400000000,-0.000067600000000,-0.000062600000000,-0.000000025500000,-0.000000102000000,0.000064600000000,0.000112000000000,-0.000002720000000,-0.000132000000000,0.045000000000000,0.000469000000000,-0.047100000000000,0.000011100000000,0.000634000000000,0.294000000000000,0.344000000000000,
122000.000000000000000,-0.000072500000000,-0.000067600000000,-0.000062600000000,-0.000000025600000,-0.000000088300000,0.000064600000000,0.000112000000000,-0.000002740000000,-0.000132000000000,0.045100000000000,0.000469000000000,-0.047200000000000,0.000014600000000,0.000640000000000,0.295000000000000,0.344000000000000,
122000.000000000000000,-0.000072500000000,-0.000067600000000,-0.000062600000000,-0.000000025700000,-0.000000068600000,0.000064600000000,0.000112000000000,-0.000002770000000,-0.000132000000000,0.045200000000000,0.000470000000000,-0.047300000000000,0.000019800000000,0.000650000000000,0.295000000000000,0.345000000000000,
122000.000000000000000,-0.000072600000000,-0.000067700000000,-0.000062700000000,-0.000000025800000,-0.000000043400000,0.000064600000000,0.000112000000000,-0.000002840000000,-0.000132000000000,0.045300000000000,0.000471000000000,-0.047400000000000,0.000026400000000,0.000663000000000,0.295000000000000,0.345000000000000,
123000.000000000000000,-0.000072700000000,-0.000067800000000,-0.000062800000000,-0.000000025900000,-0.000000009560000,0.000064600000000,0.000112000000000,-0.000002930000000,-0.000133000000000,0.045400000000000,0.000472000000000,-0.047500000000000,0.000035400000000,0.000680000000000,0.296000000000000,0.345000000000000,
123000.000000000000000,-0.000072900000000,-0.000067900000000,-0.000062900000000,-0.000000026000000,0.000000026000000,0.000064700000000,0.000112000000000,-0.000003030000000,-0.000133000000000,0.045500000000000,0.000473000000000,-0.047700000000000,0.000045000000000,0.000698000000000,0.296000000000000,0.346000000000000,
123000.000000000000000,-0.000072900000000,-0.000068000000000,-0.000063000000000,-0.000000026100000,0.000000051700000,0.000064700000000,0.000112000000000,-0.000003090000000,-0.000133000000000,0.045600000000000,0.000474000000000,-0.047800000000000,0.000051900000000,0.000711000000000,0.296000000000000,0.346000000000000,
123000.000000000000000,-0.000073000000000,-0.000068000000000,-0.000063000000000,-0.000000026200000,0.000000063500000,0.000064700000000,0.000112000000000,-0.000003090000000,-0.000133000000000,0.045800000000000,0.000474000000000,-0.047900000000000,0.000055100000000,0.000717000000000,0.297000000000000,0.347000000000000,
123000.000000000000000,-0.000072900000000,-0.000068000000000,-0.000063000000000,-0.000000026200000,0.000000063900000,0.000064700000000,0.000112000000000,-0.000003040000000,-0.000133000000000,0.045900000000000,0.000474000000000,-0.048000000000000,0.000055300000000,0.000717000000000,0.297000000000000,0.347000000000000,
123000.000000000000000,-0.000072900000000,-0.000067900000000,-0.000062900000000,-0.000000026200000,0.000000055700000,0.000064700000000,0.000112000000000,-0.000002960000000,-0.000133000000000,0.046000000000000,0.000473000000000,-0.048100000000000,0.000053100000000,0.000713000000000,0.297000000000000,0.347000000000000,
123000.000000000000000,-0.000072800000000,-0.000067800000000,-0.000062800000000,-0.000000026200000,0.000000036800000,0.000064700000000,0.000112000000000,-0.000002850000000,-0.000133000000000,0.046100000000000,0.000473000000000,-0.048300000000000,0.000048100000000,0.000703000000000,0.298000000000000,0.348000000000000,
123000.000000000000000,-0.000072700000000,-0.000067700000000,-0.000062600000000,-0.000000026000000,0.000000006940000,0.000064800000000,0.000112000000000,-0.000002710000000,-0.000133000000000,0.046200000000000,0.000472000000000,-0.048400000000000,0.000040200000000,0.000688000000000,0.298000000000000,0.348000000000000,
123000.000000000000000,-0.000072600000000,-0.000067600000000,-0.000062500000000,-0.000000025900000,-0.000000026500000,0.000064800000000,0.000113000000000,-0.000002560000000,-0.000132000000000,0.046300000000000,0.000470000000000,-0.048500000000000,0.000031200000000,0.000671000000000,0.298000000000000,0.349000000000000,
123000.000000000000000,-0.000072500000000,-0.000067500000000,-0.000062400000000,-0.000000025700000,-0.000000054800000,0.000064800000000,0.000113000000000,-0.000002440000000,-0.000132000000000,0.046400000000000,0.000470000000000,-0.048600000000000,0.000023600000000,0.000657000000000,0.298000000000000,0.349000000000000,
124000.000000000000000,-0.000072400000000,-0.000067400000000,-0.000062300000000,-0.000000025600000,-0.000000074800000,0.000064800000000,0.000113000000000,-0.000002350000000,-0.000132000000000,0.046500000000000,0.000469000000000,-0.048700000000000,0.000018300000000,0.000647000000000,0.299000000000000,0.349000000000000,
124000.000000000000000,-0.000072400000000,-0.000067400000000,-0.000062200000000,-0.000000025600000,-0.000000087200000,0.000064800000000,0.000113000000000,-0.000002280000000,-0.000132000000000,0.046600000000000,0.000468000000000,-0.048800000000000,0.000014800000000,0.000641000000000,0.299000000000000,0.350000000000000,
124000.000000000000000,-0.000072300000000,-0.000067300000000,-0.000062200000000,-0.000000025700000,-0.000000090100000,0.000064800000000,0.000113000000000,-0.000002220000000,-0.000132000000000,0.046700000000000,0.000468000000000,-0.048900000000000,0.000013900000000,0.000639000000000,0.299000000000000,0.350000000000000,
124000.000000000000000,-0.000072300000000,-0.000067300000000,-0.000062100000000,-0.000000025900000,-0.000000079200000,0.000064800000000,0.000113000000000,-0.000002200000000,-0.000132000000000,0.046800000000000,0.000468000000000,-0.049000000000000,0.000016800000000,0.000645000000000,0.300000000000000,0.350000000000000,
124000.000000000000000,-0.000072400000000,-0.000067300000000,-0.000062200000000,-0.000000026100000,-0.000000055000000,0.000064900000000,0.000113000000000,-0.000002220000000,-0.000132000000000,0.046900000000000,0.000469000000000,-0.049100000000000,0.000023200000000,0.000657000000000,0.300000000000000,0.351000000000000,
124000.000000000000000,-0.000072400000000,-0.000067400000000,-0.000062200000000,-0.000000026200000,-0.000000025100000,0.000064900000000,0.000113000000000,-0.000002280000000,-0.000132000000000,0.047000000000000,0.000469000000000,-0.049200000000000,0.000031300000000,0.000672000000000,0.300000000000000,0.351000000000000,
124000.000000000000000,-0.000072500000000,-0.000067500000000,-0.000062300000000,-0.000000026300000,0.000000003560000,0.000064900000000,0.000113000000000,-0.000002350000000,-0.000133000000000,0.047100000000000,0.000470000000000,-0.049300000000000,0.000039100000000,0.000686000000000,0.300000000000000,0.351000000000000,
124000.000000000000000,-0.000072600000000,-0.000067600000000,-0.000062400000000,-0.000000026300000,0.000000030100000,0.000064900000000,0.000113000000000,-0.000002430000000,-0.000133000000000,0.047200000000000,0.000471000000000,-0.049400000000000,0.000046200000000,0.000700000000000,0.301000000000000,0.352000000000000,
124000.000000000000000,-0.000072700000000,-0.000067700000000,-0.000062500000000,-0.000000026400000,0.000000053400000,0.000064900000000,0.000113000000000,-0.000002500000000,-0.000133000000000,0.047300000000000,0.000472000000000,-0.049500000000000,0.000052500000000,0.000711000000000,0.301000000000000,0.352000000000000,
124000.000000000000000,-0.000072800000000,-0.000067700000000,-0.000062500000000,-0.000000026600000,0.000000067800000,0.000064900000000,0.000113000000000,-0.000002520000000,-0.000133000000000,0.047400000000000,0.000473000000000,-0.049600000000000,0.000056400000000,0.000719000000000,0.301000000000000,0.352000000000000,
125000.000000000000000,-0.000072700000000,-0.000067600000000,-0.000062500000000,-0.000000026700000,0.000000067900000,0.000064900000000,0.000113000000000,-0.000002460000000,-0.000133000000000,0.047500000000000,0.000472000000000,-0.049700000000000,0.000056300000000,0.000719000000000,0.302000000000000,0.353000000000000,
125000.000000000000000,-0.000072600000000,-0.000067500000000,-0.000062400000000,-0.000000026800000,0.000000054900000,0.000064900000000,0.000113000000000,-0.000002350000000,-0.000133000000000,0.047600000000000,0.000471000000000,-0.049800000000000,0.000052700000000,0.000712000000000,0.302000000000000,0.353000000000000,
125000.000000000000000,-0.000072500000000,-0.000067400000000,-0.000062200000000,-0.000000026800000,0.000000034600000,0.000065000000000,0.000113000000000,-0.000002220000000,-0.000133000000000,0.047700000000000,0.000470000000000,-0.049900000000000,0.000047100000000,0.000702000000000,0.302000000000000,0.353000000000000,
125000.000000000000000,-0.000072400000000,-0.000067300000000,-0.000062100000000,-0.000000026600000,0.000000010300000,0.000065000000000,0.000113000000000,-0.000002100000000,-0.000132000000000,0.047900000000000,0.000470000000000,-0.050000000000000,0.000040600000000,0.000690000000000,0.302000000000000,0.354000000000000,
125000.000000000000000,-0.000072400000000,-0.000067200000000,-0.000062000000000,-0.000000026400000,-0.000000017700000,0.000065000000000,0.000113000000000,-0.000001990000000,-0.000132000000000,0.048000000000000,0.000469000000000,-0.050100000000000,0.000033000000000,0.000676000000000,0.303000000000000,0.354000000000000,
125000.000000000000000,-0.000072300000000,-0.000067100000000,-0.000061900000000,-0.000000026300000,-0.000000046900000,0.000065000000000,0.000113000000000,-0.000001860000000,-0.000132000000000,0.048100000000000,0.000468000000000,-0.050200000000000,0.000024900000000,0.000661000000000,0.303000000000000,0.354000000000000,
125000.000000000000000,-0.000072200000000,-0.000067000000000,-0.000061800000000,-0.000000026300000,-0.000000068700000,0.000065000000000,0.000113000000000,-0.000001740000000,-0.000132000000000,0.048200000000000,0.000467000000000,-0.050300000000000,0.000018900000000,0.000650000000000,0.303000000000000,0.355000000000000,
125000.000000000000000,-0.000072100000000,-0.000067000000000,-0.000061700000000,-0.000000026400000,-0.000000077700000,0.000065000000000,0.000113000000000,-0.000001660000000,-0.000132000000000,0.048300000000000,0.000466000000000,-0.050400000000000,0.000016300000000,0.000645000000000,0.303000000000000,0.355000000000000,
125000.000000000000000,-0.000072100000000,-0.000066900000000,-0.000061700000000,-0.000000026500000,-0.000000075800000,0.000065000000000,0.000113000000000,-0.000001630000000,-0.000132000000000,0.048400000000000,0.000466000000000,-0.050500000000000,0.000016800000000,0.000646000000000,0.304000000000000,0.355000000000000,
125000.000000000000000,-0.000072100000000,-0.000067000000000,-0.000061700000000,-0.000000026500000,-0.000000065000000,0.000065100000000,0.000113000000000,-0.000001630000000,-0.000132000000000,0.048500000000000,0.000467000000000,-0.050600000000000,0.000019600000000,0.000651000000000,0.304000000000000,0.356000000000000,
126000.000000000000000,-0.000072200000000,-0.000067000000000,-0.000061700000000,-0.000000026600000,-0.000000045800000,0.000065100000000,0.000113000000000,-0.000001670000000,-0.000132000000000,0.048600000000000,0.000467000000000,-0.050700000000000,0.000024800000000,0.000661000000000,0.304000000000000,0.356000000000000,
126000.000000000000000,-0.000072300000000,-0.000067100000000,-0.000061800000000,-0.000000026900000,-0.000000018800000,0.000065100000000,0.000113000000000,-0.000001730000000,-0.000132000000000,0.048700000000000,0.000468000000000,-0.050800000000000,0.000032100000000,0.000675000000000,0.305000000000000,0.356000000000000,
126000.000000000000000,-0.000072400000000,-0.000067200000000,-0.000061900000000,-0.000000027100000,0.000000012400000,0.000065100000000,0.000113000000000,-0.000001810000000,-0.000132000000000,0.048800000000000,0.000469000000000,-0.050900000000000,0.000040700000000,0.000690000000000,0.305000000000000,0.357000000000000,
126000.000000000000000,-0.000072400000000,-0.000067200000000,-0.000061900000000,-0.000000027200000,0.000000038800000,0.000065100000000,0.000113000000000,-0.000001870000000,-0.000133000000000,0.048900000000000,0.000470000000000,-0.051000000000000,0.000047900000000,0.000704000000000,0.305000000000000,0.357000000000000,
126000.000000000000000,-0.000072500000000,-0.000067300000000,-0.000062000000000,-0.000000027300000,0.000000055200000,0.000065100000000,0.000113000000000,-0.000001890000000,-0.000133000000000,0.049000000000000,0.000470000000000,-0.051100000000000,0.000052400000000,0.000712000000000,0.305000000000000,0.357000000000000,
126000.000000000000000,-0.000072500000000,-0.000067300000000,-0.000062000000000,-0.000000024000000,0.000000058000000,0.000065100000000,0.000113000000000,-0.000001930000000,-0.000133000000000,0.049100000000000,0.000470000000000,-0.051200000000000,0.000055600000000,0.000713000000000,0.306000000000000,0.358000000000000,
126000.000000000000000,-0.000072600000000,-0.000067400000000,-0.000062100000000,-0.000000027100000,0.000000063700000,0.000065200000000,0.000113000000000,-0.000001960000000,-0.000133000000000,0.049200000000000,0.000471000000000,-0.051400000000000,0.000055300000000,0.000716000000000,0.306000000000000,0.358000000000000,
126000.000000000000000,-0.000072500000000,-0.000067300000000,-0.000062000000000,-0.000000027700000,0.000000057800000,0.000065200000000,0.000113000000000,-0.000001860000000,-0.000133000000000,0.049300000000000,0.000470000000000,-0.051500000000000,0.000052300000000,0.000713000000000,0.306000000000000,0.359000000000000,
126000.000000000000000,-0.000072400000000,-0.000067200000000,-0.000061800000000,-0.000000027400000,0.000000041600000,0.000065200000000,0.000113000000000,-0.000001730000000,-0.000133000000000,0.049400000000000,0.000469000000000,-0.051500000000000,0.000048700000000,0.000705000000000,0.307000000000000,0.359000000000000,
126000.000000000000000,-0.000072300000000,-0.000067100000000,-0.000061700000000,-0.000000027000000,0.000000024200000,0.000065200000000,0.000113000000000,-0.000001600000000,-0.000132000000000,0.049600000000000,0.000469000000000,-0.051700000000000,0.000043800000000,0.000698000000000,0.307000000000000,0.359000000000000,
127000.000000000000000,-0.000072200000000,-0.000066900000000,-0.000061600000000,-0.000000027000000,-0.000000017900000,0.000065200000000,0.000113000000000,-0.000001460000000,-0.000132000000000,0.049700000000000,0.000467000000000,-0.051800000000000,0.000032600000000,0.000675000000000,0.307000000000000,0.360000000000000,
127000.000000000000000,-0.000072100000000,-0.000066900000000,-0.000061500000000,-0.000000027200000,-0.000000029500000,0.000065200000000,0.000113000000000,-0.000001380000000,-0.000132000000000,0.049800000000000,0.000467000000000,-0.051900000000000,0.000028400000000,0.000670000000000,0.308000000000000,0.360000000000000,
127000.000000000000000,-0.000072100000000,-0.000066800000000,-0.000061400000000,-0.000000027100000,-0.000000046400000,0.000065200000000,0.000113000000000,-0.000001300000000,-0.000132000000000,0.049900000000000,0.000466000000000,-0.052000000000000,0.000024300000000,0.000661000000000,0.308000000000000,0.360000000000000,
127000.000000000000000,-0.000072000000000,-0.000066700000000,-0.000061300000000,-0.000000027200000,-0.000000061400000,0.000065300000000,0.000113000000000,-0.000001200000000,-0.000132000000000,0.050000000000000,0.000466000000000,-0.052100000000000,0.000019400000000,0.000653000000000,0.308000000000000,0.361000000000000,
127000.000000000000000,-0.000072000000000,-0.000066700000000,-0.000061300000000,-0.000000027000000,-0.000000068400000,0.000065300000000,0.000113000000000,-0.000001150000000,-0.000132000000000,0.050100000000000,0.000465000000000,-0.052200000000000,0.000018300000000,0.000650000000000,0.308000000000000,0.361000000000000,
127000.000000000000000,-0.000072000000000,-0.000066700000000,-0.000061300000000,-0.000000027100000,-0.000000054800000,0.000065300000000,0.000113000000000,-0.000001160000000,-0.000132000000000,0.050200000000000,0.000466000000000,-0.052300000000000,0.000021600000000,0.000658000000000,0.309000000000000,0.361000000000000,
127000.000000000000000,-0.000072100000000,-0.000066800000000,-0.000061400000000,-0.000000027000000,-0.000000040300000,0.000065300000000,0.000113000000000,-0.000001210000000,-0.000132000000000,0.050300000000000,0.000466000000000,-0.052400000000000,0.000026200000000,0.000665000000000,0.309000000000000,0.362000000000000,
127000.000000000000000,-0.000072200000000,-0.000066900000000,-0.000061500000000,-0.000000027600000,-0.000000002540000,0.000065300000000,0.000113000000000,-0.000001300000000,-0.000132000000000,0.050400000000000,0.000468000000000,-0.052500000000000,0.000036100000000,0.000684000000000,0.309000000000000,0.362000000000000,
127000.000000000000000,-0.000072200000000,-0.000066900000000,-0.000061500000000,-0.000000027600000,0.000000017600000,0.000065300000000,0.000114000000000,-0.000001330000000,-0.000132000000000,0.050500000000000,0.000468000000000,-0.052600000000000,0.000041800000000,0.000694000000000,0.310000000000000,0.362000000000000,
127000.000000000000000,-0.000072300000000,-0.000066900000000,-0.000061500000000,-0.000000028000000,0.000000034800000,0.000065300000000,0.000114000000000,-0.000001330000000,-0.000132000000000,0.050600000000000,0.000468000000000,-0.052700000000000,0.000046000000000,0.000701000000000,0.310000000000000,0.363000000000000,
128000.000000000000000,-0.000072300000000,-0.000067000000000,-0.000061600000000,-0.000000027900000,0.000000055700000,0.000065300000000,0.000114000000000,-0.000001400000000,-0.000133000000000,0.050700000000000,0.000469000000000,-0.052900000000000,0.000052300000000,0.000712000000000,0.310000000000000,0.363000000000000,
128000.000000000000000,-0.000072400000000,-0.000067000000000,-0.000061600000000,-0.000000028300000,0.000000065500000,0.000065400000000,0.000114000000000,-0.000001390000000,-0.000133000000000,0.050900000000000,0.000469000000000,-0.053000000000000,0.000054600000000,0.000717000000000,0.310000000000000,0.363000000000000,
128000.000000000000000,-0.000072400000000,-0.000067000000000,-0.000061600000000,-0.000000028200000,0.000000067700000,0.000065400000000,0.000114000000000,-0.000001390000000,-0.000133000000000,0.051000000000000,0.000470000000000,-0.053100000000000,0.000055600000000,0.000718000000000,0.311000000000000,0.364000000000000,
128000.000000000000000,-0.000072400000000,-0.000067000000000,-0.000061600000000,-0.000000028200000,0.000000062000000,0.000065400000000,0.000114000000000,-0.000001340000000,-0.000133000000000,0.051100000000000,0.000469000000000,-0.053200000000000,0.000054200000000,0.000716000000000,0.311000000000000,0.364000000000000,
128000.000000000000000,-0.000072300000000,-0.000066900000000,-0.000061500000000,-0.000000028100000,0.000000042900000,0.000065400000000,0.000114000000000,-0.000001250000000,-0.000133000000000,0.051200000000000,0.000469000000000,-0.053300000000000,0.000048700000000,0.000706000000000,0.311000000000000,0.364000000000000,
128000.000000000000000,-0.000072200000000,-0.000066900000000,-0.000061400000000,-0.000000028300000,0.000000030600000,0.000065400000000,0.000114000000000,-0.000001170000000,-0.000132000000000,0.051300000000000,0.000468000000000,-0.053400000000000,0.000044900000000,0.000700000000000,0.312000000000000,0.365000000000000,
128000.000000000000000,-0.000072200000000,-0.000066800000000,-0.000061300000000,-0.000000028300000,0.000000012900000,0.000065400000000,0.000114000000000,-0.000001070000000,-0.000132000000000,0.051400000000000,0.000467000000000,-0.053500000000000,0.000039500000000,0.000691000000000,0.312000000000000,0.365000000000000,
128000.000000000000000,-0.000072100000000,-0.000066700000000,-0.000061200000000,-0.000000028200000,-0.000000015700000,0.000065400000000,0.000114000000000,-0.000000943000000,-0.000132000000000,0.051500000000000,0.000466000000000,-0.053600000000000,0.000031100000000,0.000676000000000,0.312000000000000,0.365000000000000,
128000.000000000000000,-0.000072000000000,-0.000066600000000,-0.000061100000000,-0.000000028200000,-0.000000030900000,0.000065500000000,0.000114000000000,-0.000000872000000,-0.000132000000000,0.051600000000000,0.000466000000000,-0.053700000000000,0.000026700000000,0.000670000000000,0.312000000000000,0.366000000000000,
128000.000000000000000,-0.000072000000000,-0.000066600000000,-0.000061000000000,-0.000000028000000,-0.000000047600000,0.000065500000000,0.000114000000000,-0.000000808000000,-0.000132000000000,0.051700000000000,0.000466000000000,-0.053800000000000,0.000022300000000,0.000661000000000,0.313000000000000,0.366000000000000,
129000.000000000000000,-0.000072000000000,-0.000066600000000,-0.000061000000000,-0.000000028100000,-0.000000051500000,0.000065500000000,0.000114000000000,-0.000000775000000,-0.000132000000000,0.051900000000000,0.000465000000000,-0.053900000000000,0.000021000000000,0.000659000000000,0.313000000000000,0.367000000000000,
129000.000000000000000,-0.000072000000000,-0.000066600000000,-0.000061000000000,-0.000000028100000,-0.000000043700000,0.000065500000000,0.000114000000000,-0.000000786000000,-0.000132000000000,0.052000000000000,0.000466000000000,-0.054100000000000,0.000023300000000,0.000664000000000,0.313000000000000,0.367000000000000,
129000.000000000000000,-0.000072000000000,-0.000066600000000,-0.000061000000000,-0.000000028500000,-0.000000036700000,0.000065500000000,0.000114000000000,-0.000000766000000,-0.000132000000000,0.052100000000000,0.000466000000000,-0.054200000000000,0.000024500000000,0.000667000000000,0.314000000000000,0.367000000000000,
129000.000000000000000,-0.000072100000000,-0.000066600000000,-0.000061100000000,-0.000000028600000,-0.000000017400000,0.000065500000000,0.000114000000000,-0.000000819000000,-0.000132000000000,0.052200000000000,0.000467000000000,-0.054300000000000,0.000029800000000,0.000676000000000,0.314000000000000,0.368000000000000,
129000.000000000000000,-0.000072200000000,-0.000066700000000,-0.000061200000000,-0.000000028900000,0.000000010100000,0.000065500000000,0.000114000000000,-0.000000891000000,-0.000132000000000,0.052300000000000,0.000467000000000,-0.054400000000000,0.000037200000000,0.000690000000000,0.314000000000000,0.368000000000000,
129000.000000000000000,-0.000072300000000,-0.000066800000000,-0.000061200000000,-0.000000028800000,0.000000029500000,0.000065600000000,0.000114000000000,-0.000000959000000,-0.000133000000000,0.052400000000000,0.000468000000000,-0.054500000000000,0.000043000000000,0.000700000000000,0.314000000000000,0.368000000000000,
129000.000000000000000,-0.000072300000000,-0.000066900000000,-0.000061300000000,-0.000000029100000,0.000000052800000,0.000065600000000,0.000114000000000,-0.000001030000000,-0.000133000000000,0.052500000000000,0.000469000000000,-0.054600000000000,0.000049500000000,0.000712000000000,0.315000000000000,0.369000000000000,
129000.000000000000000,-0.000072400000000,-0.000066900000000,-0.000061400000000,-0.000000029200000,0.000000063000000,0.000065600000000,0.000114000000000,-0.000001060000000,-0.000133000000000,0.052600000000000,0.000470000000000,-0.054800000000000,0.000052600000000,0.000717000000000,0.315000000000000,0.369000000000000,
129000.000000000000000,-0.000072400000000,-0.000066900000000,-0.000061400000000,-0.000000029400000,0.000000069900000,0.000065600000000,0.000114000000000,-0.000001070000000,-0.000133000000000,0.052800000000000,0.000470000000000,-0.054900000000000,0.000054200000000,0.000720000000000,0.315000000000000,0.369000000000000,
129000.000000000000000,-0.000072500000000,-0.000067000000000,-0.000061400000000,-0.000000029500000,0.000000078900000,0.000065600000000,0.000114000000000,-0.000001100000000,-0.000133000000000,0.052900000000000,0.000470000000000,-0.055000000000000,0.000056900000000,0.000725000000000,0.316000000000000,0.370000000000000,
130000.000000000000000,-0.000072500000000,-0.000067000000000,-0.000061400000000,-0.000000029700000,0.000000074900000,0.000065600000000,0.000114000000000,-0.000001050000000,-0.000133000000000,0.053000000000000,0.000470000000000,-0.055100000000000,0.000055000000000,0.000723000000000,0.316000000000000,0.370000000000000,
130000.000000000000000,-0.000072400000000,-0.000066900000000,-0.000061300000000,-0.000000029600000,0.000000061300000,0.000065600000000,0.000114000000000,-0.000001010000000,-0.000133000000000,0.053100000000000,0.000470000000000,-0.055200000000000,0.000051100000000,0.000716000000000,0.316000000000000,0.370000000000000,
130000.000000000000000,-0.000072400000000,-0.000066900000000,-0.000061300000000,-0.000000029500000,0.000000046300000,0.000065700000000,0.000114000000000,-0.000000940000000,-0.000133000000000,0.053200000000000,0.000469000000000,-0.055300000000000,0.000046700000000,0.000709000000000,0.317000000000000,0.371000000000000,
130000.000000000000000,-0.000072300000000,-0.000066800000000,-0.000061200000000,-0.000000029500000,0.000000024400000,0.000065700000000,0.000114000000000,-0.000000855000000,-0.000133000000000,0.053300000000000,0.000469000000000,-0.055400000000000,0.000040300000000,0.000698000000000,0.317000000000000,0.371000000000000,
130000.000000000000000,-0.000072300000000,-0.000066800000000,-0.000061200000000,-0.000000029500000,0.000000011500000,0.000065700000000,0.000114000000000,-0.000000799000000,-0.000133000000000,0.053500000000000,0.000468000000000,-0.055600000000000,0.000036500000000,0.000693000000000,0.317000000000000,0.372000000000000,
130000.000000000000000,-0.000072300000000,-0.000066700000000,-0.000061100000000,-0.000000029400000,-0.000000007050000,0.000065700000000,0.000114000000000,-0.000000741000000,-0.000133000000000,0.053600000000000,0.000468000000000,-0.055700000000000,0.000031300000000,0.000684000000000,0.317000000000000,0.372000000000000,
130000.000000000000000,-0.000072200000000,-0.000066700000000,-0.000061000000000,-0.000000029300000,-0.000000024400000,0.000065700000000,0.000114000000000,-0.000000668000000,-0.000133000000000,0.053700000000000,0.000467000000000,-0.055800000000000,0.000026000000000,0.000675000000000,0.318000000000000,0.372000000000000,
130000.000000000000000,-0.000072200000000,-0.000066700000000,-0.000061000000000,-0.000000029200000,-0.000000030200000,0.000065700000000,0.000114000000000,-0.000000644000000,-0.000133000000000,0.053800000000000,0.000467000000000,-0.055900000000000,0.000024200000000,0.000672000000000,0.318000000000000,0.373000000000000,
130000.000000000000000,-0.000072200000000,-0.000066700000000,-0.000061000000000,-0.000000029100000,-0.000000033100000,0.000065700000000,0.000114000000000,-0.000000630000000,-0.000133000000000,0.053900000000000,0.000467000000000,-0.056000000000000,0.000023500000000,0.000671000000000,0.318000000000000,0.373000000000000,
130000.000000000000000,-0.000072300000000,-0.000066700000000,-0.000061000000000,-0.000000029200000,-0.000000026400000,0.000065800000000,0.000114000000000,-0.000000657000000,-0.000133000000000,0.054000000000000,0.000468000000000,-0.056100000000000,0.000025400000000,0.000674000000000,0.319000000000000,0.373000000000000,
131000.000000000000000,-0.000072400000000,-0.000066800000000,-0.000061100000000,-0.000000029200000,-0.000000012100000,0.000065800000000,0.000114000000000,-0.000000709000000,-0.000133000000000,0.054200000000000,0.000468000000000,-0.056300000000000,0.000029700000000,0.000681000000000,0.319000000000000,0.374000000000000,
131000.000000000000000,-0.000072400000000,-0.000066800000000,-0.000061200000000,-0.000000029400000,-0.000000002130000,0.000065800000000,0.000114000000000,-0.000000746000000,-0.000133000000000,0.054300000000000,0.000469000000000,-0.056400000000000,0.000032700000000,0.000686000000000,0.319000000000000,0.374000000000000,
131000.000000000000000,-0.000072500000000,-0.000066900000000,-0.000061200000000,-0.000000029400000,0.000000021900000,0.000065800000000,0.000114000000000,-0.000000828000000,-0.000133000000000,0.054400000000000,0.000470000000000,-0.056500000000000,0.000039800000000,0.000699000000000,0.320000000000000,0.374000000000000,
131000.000000000000000,-0.000072600000000,-0.000067000000000,-0.000061300000000,-0.000000029500000,0.000000045100000,0.000065800000000,0.000114000000000,-0.000000911000000,-0.000133000000000,0.054500000000000,0.000471000000000,-0.056600000000000,0.000046700000000,0.000710000000000,0.320000000000000,0.375000000000000,
131000.000000000000000,-0.000072700000000,-0.000067100000000,-0.000061400000000,-0.000000029600000,0.000000060400000,0.000065800000000,0.000114000000000,-0.000000960000000,-0.000133000000000,0.054600000000000,0.000471000000000,-0.056800000000000,0.000051200000000,0.000717000000000,0.320000000000000,0.375000000000000,
131000.000000000000000,-0.000072800000000,-0.000067100000000,-0.000061400000000,-0.000000029800000,0.000000074400000,0.000065900000000,0.000114000000000,-0.000001000000000,-0.000133000000000,0.054800000000000,0.000472000000000,-0.056900000000000,0.000055100000000,0.000724000000000,0.320000000000000,0.376000000000000,
131000.000000000000000,-0.000072800000000,-0.000067100000000,-0.000061500000000,-0.000000029800000,0.000000076300000,0.000065900000000,0.000115000000000,-0.000001000000000,-0.000133000000000,0.054900000000000,0.000472000000000,-0.057000000000000,0.000055700000000,0.000724000000000,0.321000000000000,0.376000000000000,
131000.000000000000000,-0.000072800000000,-0.000067200000000,-0.000061500000000,-0.000000029800000,0.000000075700000,0.000065900000000,0.000115000000000,-0.000001010000000,-0.000133000000000,0.055000000000000,0.000472000000000,-0.057100000000000,0.000055700000000,0.000724000000000,0.321000000000000,0.376000000000000,
131000.000000000000000,-0.000072800000000,-0.000067200000000,-0.000061500000000,-0.000000029700000,0.000000074700000,0.000065900000000,0.000115000000000,-0.000001010000000,-0.000133000000000,0.055100000000000,0.000472000000000,-0.057200000000000,0.000055800000000,0.000725000000000,0.321000000000000,0.377000000000000,
131000.000000000000000,-0.000072800000000,-0.000067200000000,-0.000061400000000,-0.000000029600000,0.000000060900000,0.000065900000000,0.000115000000000,-0.000000971000000,-0.000133000000000,0.055200000000000,0.000472000000000,-0.057400000000000,0.000051700000000,0.000718000000000,0.322000000000000,0.377000000000000,
132000.000000000000000,-0.000072800000000,-0.000067100000000,-0.000061400000000,-0.000000029400000,0.000000044300000,0.000065900000000,0.000115000000000,-0.000000915000000,-0.000133000000000,0.055400000000000,0.000471000000000,-0.057500000000000,0.000047000000000,0.000710000000000,0.322000000000000,0.377000000000000,
132000.000000000000000,-0.000072700000000,-0.000067100000000,-0.000061300000000,-0.000000029300000,0.000000026100000,0.000065900000000,0.000115000000000,-0.000000846000000,-0.000133000000000,0.055500000000000,0.000471000000000,-0.057600000000000,0.000041400000000,0.000701000000000,0.322000000000000,0.378000000000000,
132000.000000000000000,-0.000072700000000,-0.000067000000000,-0.000061300000000,-0.000000029300000,0.000000007780000,0.000066000000000,0.000115000000000,-0.000000774000000,-0.000133000000000,0.055600000000000,0.000470000000000,-0.057700000000000,0.000035800000000,0.000692000000000,0.323000000000000,0.378000000000000,
132000.000000000000000,-0.000072700000000,-0.000067000000000,-0.000061300000000,-0.000000029200000,-0.000000001440000,0.000066000000000,0.000115000000000,-0.000000760000000,-0.000133000000000,0.055700000000000,0.000470000000000,-0.057800000000000,0.000033100000000,0.000688000000000,0.323000000000000,0.379000000000000,
132000.000000000000000,-0.000072700000000,-0.000067000000000,-0.000061200000000,-0.000000029000000,-0.000000017000000,0.000066000000000,0.000115000000000,-0.000000723000000,-0.000133000000000,0.055900000000000,0.000470000000000,-0.058000000000000,0.000028600000000,0.000680000000000,0.323000000000000,0.379000000000000,
132000.000000000000000,-0.000072700000000,-0.000067000000000,-0.000061200000000,-0.000000028900000,-0.000000026500000,0.000066000000000,0.000115000000000,-0.000000706000000,-0.000133000000000,0.056000000000000,0.000470000000000,-0.058100000000000,0.000025900000000,0.000676000000000,0.323000000000000,0.379000000000000,
132000.000000000000000,-0.000072800000000,-0.000067000000000,-0.000061300000000,-0.000000028900000,-0.000000026200000,0.000066000000000,0.000115000000000,-0.000000734000000,-0.000133000000000,0.056100000000000,0.000470000000000,-0.058200000000000,0.000026100000000,0.000677000000000,0.324000000000000,0.380000000000000,
132000.000000000000000,-0.000072800000000,-0.000067100000000,-0.000061300000000,-0.000000028900000,-0.000000023200000,0.000066000000000,0.000115000000000,-0.000000753000000,-0.000133000000000,0.056200000000000,0.000471000000000,-0.058400000000000,0.000027000000000,0.000678000000000,0.324000000000000,0.380000000000000,
132000.000000000000000,-0.000072900000000,-0.000067100000000,-0.000061300000000,-0.000000029000000,-0.000000010200000,0.000066000000000,0.000115000000000,-0.000000808000000,-0.000133000000000,0.056400000000000,0.000471000000000,-0.058500000000000,0.000031000000000,0.000684000000000,0.324000000000000,0.380000000000000,
132000.000000000000000,-0.000072900000000,-0.000067200000000,-0.000061400000000,-0.000000029000000,0.000000003130000,0.000066100000000,0.000115000000000,-0.000000861000000,-0.000133000000000,0.056500000000000,0.000472000000000,-0.058600000000000,0.000034800000000,0.000691000000000,0.325000000000000,0.381000000000000,
133000.000000000000000,-0.000073000000000,-0.000067300000000,-0.000061500000000,-0.000000029100000,0.000000014500000,0.000066100000000,0.000115000000000,-0.000000912000000,-0.000134000000000,0.056600000000000,0.000472000000000,-0.058700000000000,0.000038200000000,0.000696000000000,0.325000000000000,0.381000000000000,
133000.000000000000000,-0.000073100000000,-0.000067400000000,-0.000061600000000,-0.000000029100000,0.000000036800000,0.000066100000000,0.000115000000000,-0.000001000000000,-0.000134000000000,0.056700000000000,0.000473000000000,-0.058900000000000,0.000045000000000,0.000707000000000,0.325000000000000,0.382000000000000,
133000.000000000000000,-0.000073200000000,-0.000067400000000,-0.000061600000000,-0.000000029300000,0.000000053500000,0.000066100000000,0.000115000000000,-0.000001070000000,-0.000134000000000,0.056900000000000,0.000474000000000,-0.059000000000000,0.000050000000000,0.000716000000000,0.326000000000000,0.382000000000000,
133000.000000000000000,-0.000073300000000,-0.000067500000000,-0.000061700000000,-0.000000029300000,0.000000066500000,0.000066100000000,0.000115000000000,-0.000001140000000,-0.000134000000000,0.057000000000000,0.000475000000000,-0.059100000000000,0.000054400000000,0.000722000000000,0.326000000000000,0.382000000000000,
133000.000000000000000,-0.000073400000000,-0.000067600000000,-0.000061800000000,-0.000000029300000,0.000000075100000,0.000066100000000,0.000115000000000,-0.000001190000000,-0.000134000000000,0.057100000000000,0.000475000000000,-0.059200000000000,0.000057200000000,0.000727000000000,0.326000000000000,0.383000000000000,
133000.000000000000000,-0.000073400000000,-0.000067600000000,-0.000061800000000,-0.000000029300000,0.000000074000000,0.000066200000000,0.000115000000000,-0.000001190000000,-0.000134000000000,0.057200000000000,0.000475000000000,-0.059400000000000,0.000056700000000,0.000726000000000,0.327000000000000,0.383000000000000,
133000.000000000000000,-0.000073500000000,-0.000067600000000,-0.000061800000000,-0.000000029100000,0.000000075500000,0.000066200000000,0.000115000000000,-0.000001210000000,-0.000134000000000,0.057400000000000,0.000476000000000,-0.059500000000000,0.000057400000000,0.000727000000000,0.327000000000000,0.383000000000000,
133000.000000000000000,-0.000073500000000,-0.000067600000000,-0.000061800000000,-0.000000029200000,0.000000071600000,0.000066200000000,0.000115000000000,-0.000001200000000,-0.000134000000000,0.057500000000000,0.000476000000000,-0.059600000000000,0.000056000000000,0.000725000000000,0.327000000000000,0.384000000000000,
133000.000000000000000,-0.000073500000000,-0.000067600000000,-0.000061800000000,-0.000000029100000,0.000000060400000,0.000066200000000,0.000115000000000,-0.000001170000000,-0.000134000000000,0.057600000000000,0.000475000000000,-0.059700000000000,0.000052500000000,0.000719000000000,0.327000000000000,0.384000000000000,
133000.000000000000000,-0.000073500000000,-0.000067600000000,-0.000061800000000,-0.000000028900000,0.000000046200000,0.000066200000000,0.000115000000000,-0.000001140000000,-0.000134000000000,0.057700000000000,0.000475000000000,-0.059900000000000,0.000048600000000,0.000713000000000,0.328000000000000,0.385000000000000,
134000.000000000000000,-0.000073400000000,-0.000067600000000,-0.000061700000000,-0.000000028800000,0.000000026600000,0.000066200000000,0.000115000000000,-0.000001090000000,-0.000134000000000,0.057900000000000,0.000475000000000,-0.060000000000000,0.000042800000000,0.000704000000000,0.328000000000000,0.385000000000000,
134000.000000000000000,-0.000073400000000,-0.000067600000000,-0.000061700000000,-0.000000028600000,0.000000012800000,0.000066200000000,0.000115000000000,-0.000001070000000,-0.000134000000000,0.058000000000000,0.000475000000000,-0.060100000000000,0.000039000000000,0.000698000000000,0.328000000000000,0.385000000000000,
134000.000000000000000,-0.000073400000000,-0.000067600000000,-0.000061700000000,-0.000000028500000,0.000000002860000,0.000066300000000,0.000115000000000,-0.000001050000000,-0.000134000000000,0.058100000000000,0.000475000000000,-0.060200000000000,0.000036000000000,0.000693000000000,0.329000000000000,0.386000000000000,
134000.000000000000000,-0.000073400000000,-0.000067600000000,-0.000061700000000,-0.000000028500000,-0.000000011400000,0.000066300000000,0.000115000000000,-0.000001010000000,-0.000134000000000,0.058200000000000,0.000474000000000,-0.060400000000000,0.000031400000000,0.000685000000000,0.329000000000000,0.386000000000000,
134000.000000000000000,-0.000073400000000,-0.000067600000000,-0.000061700000000,-0.000000028500000,-0.000000017800000,0.000066300000000,0.000115000000000,-0.000000988000000,-0.000134000000000,0.058400000000000,0.000474000000000,-0.060500000000000,0.000029200000000,0.000682000000000,0.329000000000000,0.386000000000000,
134000.000000000000000,-0.000073400000000,-0.000067600000000,-0.000061700000000,-0.000000028500000,-0.000000022600000,0.000066300000000,0.000115000000000,-0.000000977000000,-0.000134000000000,0.058500000000000,0.000474000000000,-0.060600000000000,0.000027500000000,0.000679000000000,0.330000000000000,0.387000000000000,
134000.000000000000000,-0.000073500000000,-0.000067600000000,-0.000061700000000,-0.000000028500000,-0.000000018800000,0.000066300000000,0.000115000000000,-0.000001020000000,-0.000134000000000,0.058600000000000,0.000475000000000,-0.060800000000000,0.000029000000000,0.000682000000000,0.330000000000000,0.387000000000000,
134000.000000000000000,-0.000073600000000,-0.000067700000000,-0.000061800000000,-0.000000028400000,-0.000000006380000,0.000066300000000,0.000115000000000,-0.000001090000000,-0.000134000000000,0.058800000000000,0.000475000000000,-0.060900000000000,0.000033300000000,0.000689000000000,0.330000000000000,0.388000000000000,
134000.000000000000000,-0.000073700000000,-0.000067800000000,-0.000061800000000,-0.000000028400000,0.000000002810000,0.000066400000000,0.000115000000000,-0.000001140000000,-0.000134000000000,0.058900000000000,0.000476000000000,-0.061000000000000,0.000036300000000,0.000693000000000,0.331000000000000,0.388000000000000,
134000.000000000000000,-0.000073800000000,-0.000067800000000,-0.000061900000000,-0.000000028500000,0.000000017200000,0.000066400000000,0.000115000000000,-0.000001200000000,-0.000134000000000,0.059000000000000,0.000477000000000,-0.061100000000000,0.000040800000000,0.000701000000000,0.331000000000000,0.388000000000000,
135000.000000000000000,-0.000073800000000,-0.000067900000000,-0.000062000000000,-0.000000028600000,0.000000033800000,0.000066400000000,0.000115000000000,-0.000001250000000,-0.000135000000000,0.059100000000000,0.000477000000000,-0.061300000000000,0.000045500000000,0.000708000000000,0.331000000000000,0.389000000000000,
135000.000000000000000,-0.000073900000000,-0.000068000000000,-0.000062000000000,-0.000000028700000,0.000000050000000,0.000066400000000,0.000115000000000,-0.000001300000000,-0.000135000000000,0.059300000000000,0.000478000000000,-0.061400000000000,0.000050300000000,0.000716000000000,0.331000000000000,0.389000000000000,
135000.000000000000000,-0.000074000000000,-0.000068000000000,-0.000062100000000,-0.000000028800000,0.000000067100000,0.000066400000000,0.000115000000000,-0.000001380000000,-0.000135000000000,0.059400000000000,0.000479000000000,-0.061500000000000,0.000055800000000,0.000724000000000,0.332000000000000,0.389000000000000,
135000.000000000000000,-0.000074100000000,-0.000068100000000,-0.000062200000000,-0.000000028800000,0.000000073100000,0.000066400000000,0.000116000000000,-0.000001420000000,-0.000135000000000,0.059500000000000,0.000479000000000,-0.061700000000000,0.000057700000000,0.000727000000000,0.332000000000000,0.390000000000000,
135000.000000000000000,-0.000074100000000,-0.000068100000000,-0.000062200000000,-0.000000028700000,0.000000073900000,0.000066400000000,0.000116000000000,-0.000001450000000,-0.000135000000000,0.059600000000000,0.000479000000000,-0.061800000000000,0.000058400000000,0.000728000000000,0.332000000000000,0.390000000000000,
135000.000000000000000,-0.000074200000000,-0.000068200000000,-0.000062200000000,-0.000000028600000,0.000000073700000,0.000066500000000,0.000116000000000,-0.000001470000000,-0.000135000000000,0.059800000000000,0.000480000000000,-0.061900000000000,0.000058700000000,0.000729000000000,0.333000000000000,0.391000000000000,
135000.000000000000000,-0.000074200000000,-0.000068200000000,-0.000062200000000,-0.000000028700000,0.000000068400000,0.000066500000000,0.000116000000000,-0.000001460000000,-0.000135000000000,0.059900000000000,0.000480000000000,-0.062000000000000,0.000056900000000,0.000726000000000,0.333000000000000,0.391000000000000,
135000.000000000000000,-0.000074200000000,-0.000068200000000,-0.000062200000000,-0.000000028600000,0.000000063400000,0.000066500000000,0.000116000000000,-0.000001450000000,-0.000135000000000,0.060000000000000,0.000480000000000,-0.062200000000000,0.000055300000000,0.000724000000000,0.333000000000000,0.391000000000000,
135000.000000000000000,-0.000074200000000,-0.000068200000000,-0.000062200000000,-0.000000028600000,0.000000049000000,0.000066500000000,0.000116000000000,-0.000001410000000,-0.000135000000000,0.060200000000000,0.000479000000000,-0.062300000000000,0.000050700000000,0.000716000000000,0.334000000000000,0.392000000000000,
135000.000000000000000,-0.000074100000000,-0.000068100000000,-0.000062100000000,-0.000000028400000,0.000000031600000,0.000066500000000,0.000116000000000,-0.000001360000000,-0.000135000000000,0.060300000000000,0.000479000000000,-0.062400000000000,0.000045300000000,0.000708000000000,0.334000000000000,0.392000000000000,
136000.000000000000000,-0.000074200000000,-0.000068100000000,-0.000062100000000,-0.000000028300000,0.000000019600000,0.000066500000000,0.000116000000000,-0.000001340000000,-0.000135000000000,0.060400000000000,0.000479000000000,-0.062600000000000,0.000041800000000,0.000703000000000,0.334000000000000,0.392000000000000,
136000.000000000000000,-0.000074100000000,-0.000068100000000,-0.000062100000000,-0.000000028100000,0.000000005190000,0.000066600000000,0.000116000000000,-0.000001310000000,-0.000135000000000,0.060500000000000,0.000479000000000,-0.062700000000000,0.000037700000000,0.000696000000000,0.335000000000000,0.393000000000000,
136000.000000000000000,-0.000074200000000,-0.000068100000000,-0.000062100000000,-0.000000028000000,-0.000000003950000,0.000066600000000,0.000116000000000,-0.000001300000000,-0.000135000000000,0.060700000000000,0.000479000000000,-0.062800000000000,0.000035100000000,0.000692000000000,0.335000000000000,0.393000000000000,
136000.000000000000000,-0.000074200000000,-0.000068100000000,-0.000062100000000,-0.000000028000000,-0.000000011900000,0.000066600000000,0.000116000000000,-0.000001280000000,-0.000135000000000,0.060800000000000,0.000479000000000,-0.062900000000000,0.000032600000000,0.000689000000000,0.335000000000000,0.394000000000000,
136000.000000000000000,-0.000074200000000,-0.000068100000000,-0.000062100000000,-0.000000027900000,-0.000000019000000,0.000066600000000,0.000116000000000,-0.000001270000000,-0.000135000000000,0.060900000000000,0.000479000000000,-0.063100000000000,0.000030300000000,0.000685000000000,0.335000000000000,0.394000000000000,
136000.000000000000000,-0.000074200000000,-0.000068200000000,-0.000062100000000,-0.000000027800000,-0.000000013300000,0.000066600000000,0.000116000000000,-0.000001300000000,-0.000135000000000,0.061100000000000,0.000479000000000,-0.063200000000000,0.000032100000000,0.000688000000000,0.336000000000000,0.394000000000000,
136000.000000000000000,-0.000074300000000,-0.000068200000000,-0.000062200000000,-0.000000027900000,-0.000000004720000,0.000066600000000,0.000116000000000,-0.000001340000000,-0.000135000000000,0.061200000000000,0.000479000000000,-0.063300000000000,0.000034700000000,0.000691000000000,0.336000000000000,0.395000000000000,
136000.000000000000000,-0.000074400000000,-0.000068300000000,-0.000062200000000,-0.000000028000000,0.000000006600000,0.000066600000000,0.000116000000000,-0.000001380000000,-0.000135000000000,0.061300000000000,0.000480000000000,-0.063500000000000,0.000038300000000,0.000697000000000,0.336000000000000,0.395000000000000,
136000.000000000000000,-0.000074500000000,-0.000068400000000,-0.000062300000000,-0.000000028000000,0.000000020100000,0.000066700000000,0.000116000000000,-0.000001450000000,-0.000135000000000,0.061400000000000,0.000481000000000,-0.063600000000000,0.000042800000000,0.000704000000000,0.337000000000000,0.395000000000000,
136000.000000000000000,-0.000074500000000,-0.000068400000000,-0.000062400000000,-0.000000028100000,0.000000030500000,0.000066700000000,0.000116000000000,-0.000001500000000,-0.000135000000000,0.061600000000000,0.000481000000000,-0.063700000000000,0.000046100000000,0.000709000000000,0.337000000000000,0.396000000000000,
137000.000000000000000,-0.000074600000000,-0.000068500000000,-0.000062500000000,-0.000000028200000,0.000000047600000,0.000066700000000,0.000116000000000,-0.000001580000000,-0.000136000000000,0.061700000000000,0.000482000000000,-0.063900000000000,0.000051700000000,0.000718000000000,0.337000000000000,0.396000000000000,
137000.000000000000000,-0.000074700000000,-0.000068600000000,-0.000062500000000,-0.000000028300000,0.000000062000000,0.000066700000000,0.000116000000000,-0.000001640000000,-0.000136000000000,0.061800000000000,0.000483000000000,-0.064000000000000,0.000056200000000,0.000725000000000,0.338000000000000,0.397000000000000,
137000.000000000000000,-0.000074800000000,-0.000068600000000,-0.000062600000000,-0.000000028400000,0.000000069900000,0.000066700000000,0.000116000000000,-0.000001670000000,-0.000136000000000,0.062000000000000,0.000483000000000,-0.064100000000000,0.000058500000000,0.000728000000000,0.338000000000000,0.397000000000000,
137000.000000000000000,-0.000074800000000,-0.000068700000000,-0.000062600000000,-0.000000028400000,0.000000075000000,0.000066700000000,0.000116000000000,-0.000001700000000,-0.000136000000000,0.062100000000000,0.000483000000000,-0.064300000000000,0.000060000000000,0.000730000000000,0.338000000000000,0.397000000000000,
137000.000000000000000,-0.000074800000000,-0.000068700000000,-0.000062600000000,-0.000000028400000,0.000000071200000,0.000066700000000,0.000116000000000,-0.000001700000000,-0.000136000000000,0.062200000000000,0.000483000000000,-0.064400000000000,0.000058900000000,0.000728000000000,0.339000000000000,0.398000000000000,
137000.000000000000000,-0.000074900000000,-0.000068700000000,-0.000062600000000,-0.000000028300000,0.000000068700000,0.000066800000000,0.000116000000000,-0.000001710000000,-0.000136000000000,0.062400000000000,0.000484000000000,-0.064500000000000,0.000058400000000,0.000728000000000,0.339000000000000,0.398000000000000,
137000.000000000000000,-0.000074900000000,-0.000068700000000,-0.000062600000000,-0.000000028200000,0.000000063800000,0.000066800000000,0.000116000000000,-0.000001720000000,-0.000136000000000,0.062500000000000,0.000484000000000,-0.064700000000000,0.000057300000000,0.000726000000000,0.339000000000000,0.398000000000000,
137000.000000000000000,-0.000074900000000,-0.000068700000000,-0.000062600000000,-0.000000028000000,0.000000050300000,0.000066800000000,0.000116000000000,-0.000001690000000,-0.000136000000000,0.062600000000000,0.000484000000000,-0.064800000000000,0.000053300000000,0.000720000000000,0.339000000000000,0.399000000000000,
137000.000000000000000,-0.000074900000000,-0.000068700000000,-0.000062600000000,-0.000000027900000,0.000000037600000,0.000066800000000,0.000116000000000,-0.000001660000000,-0.000136000000000,0.062700000000000,0.000483000000000,-0.064900000000000,0.000049200000000,0.000714000000000,0.340000000000000,0.399000000000000,
137000.000000000000000,-0.000074900000000,-0.000068700000000,-0.000062600000000,-0.000000027800000,0.000000022500000,0.000066800000000,0.000116000000000,-0.000001610000000,-0.000136000000000,0.062900000000000,0.000483000000000,-0.065000000000000,0.000044200000000,0.000707000000000,0.340000000000000,0.400000000000000,
138000.000000000000000,-0.000074900000000,-0.000068700000000,-0.000062500000000,-0.000000027700000,0.000000010500000,0.000066800000000,0.000116000000000,-0.000001580000000,-0.000136000000000,0.063000000000000,0.000483000000000,-0.065200000000000,0.000040300000000,0.000701000000000,0.340000000000000,0.400000000000000,
138000.000000000000000,-0.000074900000000,-0.000068700000000,-0.000062500000000,-0.000000027600000,0.000000002830000,0.000066900000000,0.000116000000000,-0.000001570000000,-0.000136000000000,0.063100000000000,0.000483000000000,-0.065300000000000,0.000038200000000,0.000697000000000,0.341000000000000,0.400000000000000,
138000.000000000000000,-0.000074900000000,-0.000068700000000,-0.000062500000000,-0.000000027500000,-0.000000007020000,0.000066900000000,0.000116000000000,-0.000001560000000,-0.000136000000000,0.063300000000000,0.000483000000000,-0.065400000000000,0.000035200000000,0.000693000000000,0.341000000000000,0.401000000000000,
138000.000000000000000,-0.000074900000000,-0.000068700000000,-0.000062500000000,-0.000000027400000,-0.000000011700000,0.000066900000000,0.000116000000000,-0.000001570000000,-0.000136000000000,0.063400000000000,0.000483000000000,-0.065600000000000,0.000034100000000,0.000691000000000,0.341000000000000,0.401000000000000,
138000.000000000000000,-0.000075000000000,-0.000068700000000,-0.000062600000000,-0.000000027400000,-0.000000011500000,0.000066900000000,0.000116000000000,-0.000001580000000,-0.000136000000000,0.063500000000000,0.000483000000000,-0.065700000000000,0.000034300000000,0.000692000000000,0.342000000000000,0.401000000000000,
138000.000000000000000,-0.000075000000000,-0.000068800000000,-0.000062600000000,-0.000000027500000,-0.000000005450000,0.000066900000000,0.000116000000000,-0.000001610000000,-0.000136000000000,0.063700000000000,0.000483000000000,-0.065800000000000,0.000036100000000,0.000694000000000,0.342000000000000,0.402000000000000,
138000.000000000000000,-0.000075100000000,-0.000068800000000,-0.000062600000000,-0.000000027600000,0.000000008550000,0.000066900000000,0.000116000000000,-0.000001650000000,-0.000136000000000,0.063800000000000,0.000484000000000,-0.066000000000000,0.000040200000000,0.000700000000000,0.342000000000000,0.402000000000000,
138000.000000000000000,-0.000075200000000,-0.000068900000000,-0.000062700000000,-0.000000027800000,0.000000020400000,0.000066900000000,0.000116000000000,-0.000001690000000,-0.000136000000000,0.063900000000000,0.000484000000000,-0.066100000000000,0.000043800000000,0.000705000000000,0.342000000000000,0.403000000000000,
138000.000000000000000,-0.000075200000000,-0.000068900000000,-0.000062700000000,-0.000000027900000,0.000000032900000,0.000067000000000,0.000116000000000,-0.000001740000000,-0.000136000000000,0.064000000000000,0.000485000000000,-0.066200000000000,0.000047600000000,0.000712000000000,0.343000000000000,0.403000000000000,
138000.000000000000000,-0.000075300000000,-0.000069100000000,-0.000062900000000,-0.000000027800000,0.000000045100000,0.000067000000000,0.000117000000000,-0.000001830000000,-0.000136000000000,0.064200000000000,0.000486000000000,-0.066400000000000,0.000052100000000,0.000718000000000,0.343000000000000,0.403000000000000,
139000.000000000000000,-0.000075400000000,-0.000069100000000,-0.000062900000000,-0.000000027900000,0.000000054100000,0.000067000000000,0.000117000000000,-0.000001870000000,-0.000136000000000,0.064300000000000,0.000486000000000,-0.066500000000000,0.000055400000000,0.000723000000000,0.343000000000000,0.404000000000000,
139000.000000000000000,-0.000075500000000,-0.000069200000000,-0.000063000000000,-0.000000028000000,0.000000067800000,0.000067000000000,0.000117000000000,-0.000001920000000,-0.000137000000000,0.064400000000000,0.000487000000000,-0.066600000000000,0.000059900000000,0.000730000000000,0.344000000000000,0.404000000000000,
139000.000000000000000,-0.000075500000000,-0.000069200000000,-0.000063000000000,-0.000000028100000,0.000000072100000,0.000067000000000,0.000117000000000,-0.000001940000000,-0.000137000000000,0.064600000000000,0.000487000000000,-0.066800000000000,0.000061100000000,0.000732000000000,0.344000000000000,0.404000000000000,
139000.000000000000000,-0.000075600000000,-0.000069200000000,-0.000063000000000,-0.000000028100000,0.000000071000000,0.000067000000000,0.000117000000000,-0.000001950000000,-0.000137000000000,0.064700000000000,0.000487000000000,-0.066900000000000,0.000060400000000,0.000731000000000,0.344000000000000,0.405000000000000,
139000.000000000000000,-0.000075600000000,-0.000069200000000,-0.000063000000000,-0.000000028100000,0.000000070600000,0.000067100000000,0.000117000000000,-0.000001950000000,-0.000137000000000,0.064800000000000,0.000488000000000,-0.067000000000000,0.000060100000000,0.000731000000000,0.345000000000000,0.405000000000000,
139000.000000000000000,-0.000075600000000,-0.000069200000000,-0.000063000000000,-0.000000027900000,0.000000062700000,0.000067100000000,0.000117000000000,-0.000001940000000,-0.000137000000000,0.065000000000000,0.000488000000000,-0.067200000000000,0.000058000000000,0.000727000000000,0.345000000000000,0.406000000000000,
139000.000000000000000,-0.000075600000000,-0.000069300000000,-0.000063000000000,-0.000000027900000,0.000000056300000,0.000067100000000,0.000117000000000,-0.000001940000000,-0.000137000000000,0.065100000000000,0.000488000000000,-0.067300000000000,0.000056000000000,0.000725000000000,0.345000000000000,0.406000000000000,
139000.000000000000000,-0.000075600000000,-0.000069300000000,-0.000063000000000,-0.000000027800000,0.000000042100000,0.000067100000000,0.000117000000000,-0.000001910000000,-0.000137000000000,0.065200000000000,0.000487000000000,-0.067400000000000,0.000052000000000,0.000718000000000,0.346000000000000,0.406000000000000,
139000.000000000000000,-0.000075600000000,-0.000069200000000,-0.000063000000000,-0.000000027600000,0.000000024200000,0.000067100000000,0.000117000000000,-0.000001870000000,-0.000137000000000,0.065400000000000,0.000487000000000,-0.067600000000000,0.000046500000000,0.000710000000000,0.346000000000000,0.407000000000000,
139000.000000000000000,-0.000075600000000,-0.000069200000000,-0.000062900000000,-0.000000027500000,0.000000014100000,0.000067100000000,0.000117000000000,-0.000001850000000,-0.000137000000000,0.065500000000000,0.000487000000000,-0.067700000000000,0.000043100000000,0.000706000000000,0.346000000000000,0.407000000000000,
140000.000000000000000,-0.000075600000000,-0.000069200000000,-0.000062900000000,-0.000000027400000,0.000000004230000,0.000067100000000,0.000117000000000,-0.000001830000000,-0.000137000000000,0.065600000000000,0.000487000000000,-0.067800000000000,0.000040000000000,0.000701000000000,0.346000000000000,0.407000000000000,
140000.000000000000000,-0.000075600000000,-0.000069200000000,-0.000062900000000,-0.000000027400000,-0.000000002340000,0.000067200000000,0.000117000000000,-0.000001810000000,-0.000137000000000,0.065800000000000,0.000487000000000,-0.068000000000000,0.000037800000000,0.000697000000000,0.347000000000000,0.408000000000000,
140000.000000000000000,-0.000075600000000,-0.000069200000000,-0.000062900000000,-0.000000027300000,-0.000000005680000,0.000067200000000,0.000117000000000,-0.000001810000000,-0.000137000000000,0.065900000000000,0.000487000000000,-0.068100000000000,0.000036500000000,0.000695000000000,0.347000000000000,0.408000000000000,
140000.000000000000000,-0.000075700000000,-0.000069300000000,-0.000062900000000,-0.000000027200000,-0.000000011800000,0.000067200000000,0.000117000000000,-0.000001810000000,-0.000137000000000,0.066000000000000,0.000487000000000,-0.068200000000000,0.000034900000000,0.000692000000000,0.347000000000000,0.408000000000000,
140000.000000000000000,-0.000075700000000,-0.000069300000000,-0.000063000000000,-0.000000027300000,-0.000000002840000,0.000067200000000,0.000117000000000,-0.000001860000000,-0.000137000000000,0.066200000000000,0.000487000000000,-0.068400000000000,0.000037800000000,0.000698000000000,0.348000000000000,0.409000000000000,
140000.000000000000000,-0.000075800000000,-0.000069400000000,-0.000063100000000,-0.000000027300000,0.000000008540000,0.000067200000000,0.000117000000000,-0.000001930000000,-0.000137000000000,0.066300000000000,0.000488000000000,-0.068500000000000,0.000041900000000,0.000704000000000,0.348000000000000,0.409000000000000,
140000.000000000000000,-0.000075900000000,-0.000069500000000,-0.000063100000000,-0.000000027300000,0.000000019100000,0.000067200000000,0.000117000000000,-0.000001990000000,-0.000137000000000,0.066400000000000,0.000489000000000,-0.068600000000000,0.000045800000000,0.000709000000000,0.348000000000000,0.410000000000000,
140000.000000000000000,-0.000076000000000,-0.000069500000000,-0.000063200000000,-0.000000027400000,0.000000032900000,0.000067200000000,0.000117000000000,-0.000002040000000,-0.000137000000000,0.066600000000000,0.000489000000000,-0.068800000000000,0.000050000000000,0.000716000000000,0.349000000000000,0.410000000000000,
140000.000000000000000,-0.000076000000000,-0.000069600000000,-0.000063200000000,-0.000000027500000,0.000000040500000,0.000067300000000,0.000117000000000,-0.000002060000000,-0.000137000000000,0.066700000000000,0.000490000000000,-0.068900000000000,0.000052200000000,0.000718000000000,0.349000000000000,0.410000000000000,
140000.000000000000000,-0.000076100000000,-0.000069600000000,-0.000063300000000,-0.000000027600000,0.000000053300000,0.000067300000000,0.000117000000000,-0.000002120000000,-0.000137000000000,0.066800000000000,0.000490000000000,-0.069000000000000,0.000056100000000,0.000724000000000,0.349000000000000,0.411000000000000,
141000.000000000000000,-0.000076200000000,-0.000069700000000,-0.000063400000000,-0.000000027800000,0.000000067700000,0.000067300000000,0.000117000000000,-0.000002180000000,-0.000137000000000,0.067000000000000,0.000491000000000,-0.069200000000000,0.000060600000000,0.000731000000000,0.349000000000000,0.411000000000000,
141000.000000000000000,-0.000076300000000,-0.000069800000000,-0.000063400000000,-0.000000027800000,0.000000071800000,0.000067300000000,0.000117000000000,-0.000002220000000,-0.000137000000000,0.067100000000000,0.000491000000000,-0.069300000000000,0.000062400000000,0.000734000000000,0.350000000000000,0.411000000000000,
141000.000000000000000,-0.000076300000000,-0.000069800000000,-0.000063400000000,-0.000000027700000,0.000000071500000,0.000067300000000,0.000117000000000,-0.000002250000000,-0.000138000000000,0.067200000000000,0.000492000000000,-0.069500000000000,0.000062900000000,0.000734000000000,0.350000000000000,0.412000000000000,
141000.000000000000000,-0.000076300000000,-0.000069800000000,-0.000063400000000,-0.000000027700000,0.000000065400000,0.000067300000000,0.000117000000000,-0.000002250000000,-0.000138000000000,0.067400000000000,0.000492000000000,-0.069600000000000,0.000061100000000,0.000731000000000,0.350000000000000,0.412000000000000,
141000.000000000000000,-0.000076400000000,-0.000069800000000,-0.000063400000000,-0.000000027600000,0.000000059200000,0.000067400000000,0.000117000000000,-0.000002230000000,-0.000138000000000,0.067500000000000,0.000492000000000,-0.069700000000000,0.000059300000000,0.000728000000000,0.351000000000000,0.413000000000000,
141000.000000000000000,-0.000076400000000,-0.000069800000000,-0.000063400000000,-0.000000027600000,0.000000056000000,0.000067400000000,0.000117000000000,-0.000002230000000,-0.000138000000000,0.067700000000000,0.000492000000000,-0.069900000000000,0.000057900000000,0.000727000000000,0.351000000000000,0.413000000000000,
141000.000000000000000,-0.000076400000000,-0.000069800000000,-0.000063400000000,-0.000000028000000,0.000000054000000,0.000067400000000,0.000117000000000,-0.000002210000000,-0.000138000000000,0.067800000000000,0.000492000000000,-0.070000000000000,0.000055600000000,0.000726000000000,0.351000000000000,0.413000000000000,
141000.000000000000000,-0.000076400000000,-0.000069800000000,-0.000063400000000,-0.000000027600000,0.000000040300000,0.000067400000000,0.000117000000000,-0.000002180000000,-0.000138000000000,0.067900000000000,0.000491000000000,-0.070100000000000,0.000051700000000,0.000719000000000,0.352000000000000,0.414000000000000,
141000.000000000000000,-0.000076400000000,-0.000069800000000,-0.000063400000000,-0.000000027500000,0.000000020500000,0.000067400000000,0.000117000000000,-0.000002140000000,-0.000138000000000,0.068100000000000,0.000491000000000,-0.070300000000000,0.000045700000000,0.000710000000000,0.352000000000000,0.414000000000000,
141000.000000000000000,-0.000076400000000,-0.000069800000000,-0.000063300000000,-0.000000027000000,0.000000001500000,0.000067400000000,0.000117000000000,-0.000002110000000,-0.000138000000000,0.068200000000000,0.000491000000000,-0.070400000000000,0.000040900000000,0.000702000000000,0.352000000000000,0.414000000000000,
142000.000000000000000,-0.000076400000000,-0.000069800000000,-0.000063400000000,-0.000000026700000,-0.000000002770000,0.000067400000000,0.000117000000000,-0.000002130000000,-0.000138000000000,0.068300000000000,0.000491000000000,-0.070500000000000,0.000040500000000,0.000701000000000,0.352000000000000,0.415000000000000,
142000.000000000000000,-0.000076500000000,-0.000069900000000,-0.000063400000000,-0.000000026900000,-0.000000001750000,0.000067500000000,0.000117000000000,-0.000002160000000,-0.000138000000000,0.068500000000000,0.000492000000000,-0.070700000000000,0.000040400000000,0.000701000000000,0.353000000000000,0.415000000000000,
142000.000000000000000,-0.000076500000000,-0.000069900000000,-0.000063400000000,-0.000000027000000,-0.000000001470000,0.000067500000000,0.000117000000000,-0.000002140000000,-0.000138000000000,0.068600000000000,0.000492000000000,-0.070800000000000,0.000039800000000,0.000701000000000,0.353000000000000,0.416000000000000,
142000.000000000000000,-0.000076500000000,-0.000069900000000,-0.000063400000000,-0.000000026900000,-0.000000001010000,0.000067500000000,0.000117000000000,-0.000002130000000,-0.000138000000000,0.068700000000000,0.000492000000000,-0.070900000000000,0.000039500000000,0.000701000000000,0.353000000000000,0.416000000000000,
142000.000000000000000,-0.000076500000000,-0.000069900000000,-0.000063400000000,-0.000000027000000,0.000000005300000,0.000067500000000,0.000117000000000,-0.000002150000000,-0.000138000000000,0.068900000000000,0.000492000000000,-0.071100000000000,0.000041500000000,0.000703000000000,0.354000000000000,0.416000000000000,
142000.000000000000000,-0.000076600000000,-0.000070000000000,-0.000063500000000,-0.000000027200000,0.000000020700000,0.000067500000000,0.000117000000000,-0.000002240000000,-0.000138000000000,0.069000000000000,0.000493000000000,-0.071200000000000,0.000047100000000,0.000711000000000,0.354000000000000,0.417000000000000,
142000.000000000000000,-0.000076700000000,-0.000070100000000,-0.000063600000000,-0.000000027200000,0.000000035000000,0.000067500000000,0.000118000000000,-0.000002310000000,-0.000138000000000,0.069100000000000,0.000494000000000,-0.071400000000000,0.000052300000000,0.000719000000000,0.354000000000000,0.417000000000000,
142000.000000000000000,-0.000076800000000,-0.000070200000000,-0.000063700000000,-0.000000027300000,0.000000046700000,0.000067500000000,0.000118000000000,-0.000002370000000,-0.000138000000000,0.069300000000000,0.000494000000000,-0.071500000000000,0.000056800000000,0.000726000000000,0.355000000000000,0.417000000000000,
142000.000000000000000,-0.000076900000000,-0.000070200000000,-0.000063700000000,-0.000000027700000,0.000000059100000,0.000067600000000,0.000118000000000,-0.000002400000000,-0.000138000000000,0.069400000000000,0.000495000000000,-0.071600000000000,0.000059700000000,0.000732000000000,0.355000000000000,0.418000000000000,
142000.000000000000000,-0.000077000000000,-0.000070300000000,-0.000063800000000,-0.000000027500000,0.000000059000000,0.000067600000000,0.000118000000000,-0.000002470000000,-0.000138000000000,0.069600000000000,0.000495000000000,-0.071800000000000,0.000060200000000,0.000730000000000,0.355000000000000,0.418000000000000,
143000.000000000000000,-0.000077000000000,-0.000070300000000,-0.000063800000000,-0.000000027300000,0.000000065700000,0.000067600000000,0.000118000000000,-0.000002450000000,-0.000138000000000,0.069700000000000,0.000495000000000,-0.071900000000000,0.000062900000000,0.000732000000000,0.355000000000000,0.418000000000000,
143000.000000000000000,-0.000077000000000,-0.000070400000000,-0.000063800000000,-0.000000027500000,0.000000071800000,0.000067600000000,0.000118000000000,-0.000002510000000,-0.000138000000000,0.069800000000000,0.000496000000000,-0.072000000000000,0.000065100000000,0.000736000000000,0.356000000000000,0.419000000000000,
143000.000000000000000,-0.000077100000000,-0.000070400000000,-0.000063900000000,-0.000000027500000,0.000000068700000,0.000067600000000,0.000118000000000,-0.000002530000000,-0.000138000000000,0.070000000000000,0.000496000000000,-0.072200000000000,0.000064300000000,0.000735000000000,0.356000000000000,0.419000000000000,
143000.000000000000000,-0.000077100000000,-0.000070400000000,-0.000063900000000,-0.000000027600000,0.000000062700000,0.000067600000000,0.000118000000000,-0.000002540000000,-0.000138000000000,0.070100000000000,0.000496000000000,-0.072300000000000,0.000062100000000,0.000734000000000,0.356000000000000,0.420000000000000,
143000.000000000000000,-0.000077100000000,-0.000070400000000,-0.000063800000000,-0.000000027200000,0.000000049800000,0.000067700000000,0.000118000000000,-0.000002500000000,-0.000138000000000,0.070200000000000,0.000496000000000,-0.072400000000000,0.000058400000000,0.000728000000000,0.357000000000000,0.420000000000000,
143000.000000000000000,-0.000077100000000,-0.000070400000000,-0.000063800000000,-0.000000027200000,0.000000043800000,0.000067700000000,0.000118000000000,-0.000002490000000,-0.000138000000000,0.070400000000000,0.000496000000000,-0.072600000000000,0.000056300000000,0.000724000000000,0.357000000000000,0.420000000000000,
143000.000000000000000,-0.000077100000000,-0.000070400000000,-0.000063800000000,-0.000000027200000,0.000000037900000,0.000067700000000,0.000118000000000,-0.000002480000000,-0.000138000000000,0.070500000000000,0.000496000000000,-0.072700000000000,0.000054200000000,0.000721000000000,0.357000000000000,0.421000000000000,
143000.000000000000000,-0.000077100000000,-0.000070400000000,-0.000063800000000,-0.000000027000000,0.000000024300000,0.000067700000000,0.000118000000000,-0.000002410000000,-0.000138000000000,0.070600000000000,0.000495000000000,-0.072900000000000,0.000049600000000,0.000715000000000,0.358000000000000,0.421000000000000,
143000.000000000000000,-0.000077100000000,-0.000070400000000,-0.000063800000000,-0.000000026900000,0.000000014700000,0.000067700000000,0.000118000000000,-0.000002390000000,-0.000138000000000,0.070800000000000,0.000495000000000,-0.073000000000000,0.000046100000000,0.000711000000000,0.358000000000000,0.421000000000000,
143000.000000000000000,-0.000077100000000,-0.000070400000000,-0.000063800000000,-0.000000026800000,0.000000004410000,0.000067700000000,0.000118000000000,-0.000002410000000,-0.000139000000000,0.070900000000000,0.000495000000000,-0.073100000000000,0.000043300000000,0.000707000000000,0.358000000000000,0.422000000000000,
144000.000000000000000,-0.000077200000000,-0.000070400000000,-0.000063800000000,-0.000000026700000,0.000000001810000,0.000067700000000,0.000118000000000,-0.000002430000000,-0.000139000000000,0.071100000000000,0.000496000000000,-0.073300000000000,0.000043200000000,0.000707000000000,0.358000000000000,0.422000000000000,
144000.000000000000000,-0.000077200000000,-0.000070500000000,-0.000063800000000,-0.000000026600000,0.000000004570000,0.000067800000000,0.000118000000000,-0.000002450000000,-0.000139000000000,0.071200000000000,0.000496000000000,-0.073400000000000,0.000044400000000,0.000708000000000,0.359000000000000,0.423000000000000,
144000.000000000000000,-0.000077300000000,-0.000070500000000,-0.000063900000000,-0.000000026500000,0.000000001550000,0.000067800000000,0.000118000000000,-0.000002460000000,-0.000139000000000,0.071300000000000,0.000496000000000,-0.073600000000000,0.000043500000000,0.000706000000000,0.359000000000000,0.423000000000000,
144000.000000000000000,-0.000077300000000,-0.000070500000000,-0.000063900000000,-0.000000026700000,0.000000005790000,0.000067800000000,0.000118000000000,-0.000002470000000,-0.000139000000000,0.071500000000000,0.000496000000000,-0.073700000000000,0.000044200000000,0.000707000000000,0.359000000000000,0.423000000000000,
144000.000000000000000,-0.000077400000000,-0.000070600000000,-0.000063900000000,-0.000000027100000,0.000000019300000,0.000067800000000,0.000118000000000,-0.000002500000000,-0.000139000000000,0.071600000000000,0.000497000000000,-0.073800000000000,0.000047800000000,0.000713000000000,0.360000000000000,0.424000000000000,
144000.000000000000000,-0.000077400000000,-0.000070600000000,-0.000064000000000,-0.000000027100000,0.000000032100000,0.000067800000000,0.000118000000000,-0.000002570000000,-0.000139000000000,0.071700000000000,0.000497000000000,-0.074000000000000,0.000052700000000,0.000719000000000,0.360000000000000,0.424000000000000,
144000.000000000000000,-0.000077600000000,-0.000070700000000,-0.000064100000000,-0.000000027100000,0.000000045500000,0.000067800000000,0.000118000000000,-0.000002660000000,-0.000139000000000,0.071900000000000,0.000498000000000,-0.074100000000000,0.000057900000000,0.000727000000000,0.360000000000000,0.424000000000000,
144000.000000000000000,-0.000077600000000,-0.000070800000000,-0.000064100000000,-0.000000027100000,0.000000052400000,0.000067900000000,0.000118000000000,-0.000002700000000,-0.000139000000000,0.072000000000000,0.000499000000000,-0.074300000000000,0.000060600000000,0.000731000000000,0.361000000000000,0.425000000000000,
144000.000000000000000,-0.000077700000000,-0.000070800000000,-0.000064200000000,-0.000000027100000,0.000000054000000,0.000067900000000,0.000118000000000,-0.000002720000000,-0.000139000000000,0.072200000000000,0.000499000000000,-0.074400000000000,0.000061600000000,0.000731000000000,0.361000000000000,0.425000000000000,
144000.000000000000000,-0.000077700000000,-0.000070900000000,-0.000064200000000,-0.000000027200000,0.000000063800000,0.000067900000000,0.000118000000000,-0.000002760000000,-0.000139000000000,0.072300000000000,0.000500000000000,-0.074500000000000,0.000064500000000,0.000736000000000,0.361000000000000,0.426000000000000,
145000.000000000000000,-0.000077800000000,-0.000070900000000,-0.000064200000000,-0.000000027400000,0.000000070900000,0.000067900000000,0.000118000000000,-0.000002780000000,-0.000139000000000,0.072400000000000,0.000500000000000,-0.074700000000000,0.000066300000000,0.000739000000000,0.361000000000000,0.426000000000000,
145000.000000000000000,-0.000077800000000,-0.000070900000000,-0.000064300000000,-0.000000027400000,0.000000071900000,0.000067900000000,0.000118000000000,-0.000002790000000,-0.000139000000000,0.072600000000000,0.000500000000000,-0.074800000000000,0.000066600000000,0.000739000000000,0.362000000000000,0.426000000000000,
145000.000000000000000,-0.000077800000000,-0.000070900000000,-0.000064200000000,-0.000000027300000,0.000000063100000,0.000067900000000,0.000118000000000,-0.000002770000000,-0.000139000000000,0.072700000000000,0.000500000000000,-0.074900000000000,0.000063700000000,0.000734000000000,0.362000000000000,0.427000000000000,
145000.000000000000000,-0.000077800000000,-0.000071000000000,-0.000064200000000,-0.000000027000000,0.000000049100000,0.000067900000000,0.000118000000000,-0.000002760000000,-0.000139000000000,0.072900000000000,0.000500000000000,-0.075100000000000,0.000059900000000,0.000728000000000,0.362000000000000,0.427000000000000,
145000.000000000000000,-0.000077900000000,-0.000071000000000,-0.000064200000000,-0.000000027000000,0.000000043900000,0.000068000000000,0.000118000000000,-0.000002760000000,-0.000139000000000,0.073000000000000,0.000500000000000,-0.075200000000000,0.000058400000000,0.000727000000000,0.363000000000000,0.427000000000000,
145000.000000000000000,-0.000077900000000,-0.000071000000000,-0.000064300000000,-0.000000026900000,0.000000037700000,0.000068000000000,0.000118000000000,-0.000002760000000,-0.000139000000000,0.073100000000000,0.000500000000000,-0.075400000000000,0.000056500000000,0.000725000000000,0.363000000000000,0.428000000000000,
145000.000000000000000,-0.000077900000000,-0.000071000000000,-0.000064200000000,-0.000000026800000,0.000000029200000,0.000068000000000,0.000118000000000,-0.000002750000000,-0.000139000000000,0.073300000000000,0.000500000000000,-0.075500000000000,0.000053900000000,0.000722000000000,0.363000000000000,0.428000000000000,
145000.000000000000000,-0.000077900000000,-0.000071000000000,-0.000064200000000,-0.000000026800000,0.000000019400000,0.000068000000000,0.000118000000000,-0.000002720000000,-0.000139000000000,0.073400000000000,0.000500000000000,-0.075700000000000,0.000049900000000,0.000717000000000,0.364000000000000,0.429000000000000,
145000.000000000000000,-0.000077900000000,-0.000070900000000,-0.000064200000000,-0.000000026500000,0.000000004940000,0.000068000000000,0.000118000000000,-0.000002670000000,-0.000139000000000,0.073600000000000,0.000499000000000,-0.075800000000000,0.000045100000000,0.000708000000000,0.364000000000000,0.429000000000000,
145000.000000000000000,-0.000077900000000,-0.000071000000000,-0.000064200000000,-0.000000026500000,0.000000003080000,0.000068000000000,0.000118000000000,-0.000002670000000,-0.000139000000000,0.073700000000000,0.000500000000000,-0.075900000000000,0.000044500000000,0.000708000000000,0.364000000000000,0.429000000000000,
146000.000000000000000,-0.000078000000000,-0.000071000000000,-0.000064200000000,-0.000000026500000,0.000000007180000,0.000068000000000,0.000118000000000,-0.000002710000000,-0.000139000000000,0.073800000000000,0.000500000000000,-0.076100000000000,0.000045900000000,0.000710000000000,0.364000000000000,0.430000000000000,
146000.000000000000000,-0.000078000000000,-0.000071100000000,-0.000064300000000,-0.000000026500000,0.000000008190000,0.000068100000000,0.000118000000000,-0.000002750000000,-0.000140000000000,0.074000000000000,0.000500000000000,-0.076200000000000,0.000047000000000,0.000712000000000,0.365000000000000,0.430000000000000,
146000.000000000000000,-0.000078100000000,-0.000071100000000,-0.000064300000000,-0.000000026500000,0.000000009550000,0.000068100000000,0.000119000000000,-0.000002770000000,-0.000140000000000,0.074100000000000,0.000501000000000,-0.076400000000000,0.000047900000000,0.000713000000000,0.365000000000000,0.430000000000000,
146000.000000000000000,-0.000078100000000,-0.000071200000000,-0.000064300000000,-0.000000026600000,0.000000014800000,0.000068100000000,0.000119000000000,-0.000002800000000,-0.000140000000000,0.074300000000000,0.000501000000000,-0.076500000000000,0.000049600000000,0.000716000000000,0.365000000000000,0.431000000000000,
146000.000000000000000,-0.000078200000000,-0.000071200000000,-0.000064400000000,-0.000000026600000,0.000000025500000,0.000068100000000,0.000119000000000,-0.000002850000000,-0.000140000000000,0.074400000000000,0.000502000000000,-0.076600000000000,0.000053600000000,0.000720000000000,0.366000000000000,0.431000000000000,
146000.000000000000000,-0.000078300000000,-0.000071300000000,-0.000064500000000,-0.000000026900000,0.000000041600000,0.000068100000000,0.000119000000000,-0.000002900000000,-0.000140000000000,0.074500000000000,0.000502000000000,-0.076800000000000,0.000058300000000,0.000727000000000,0.366000000000000,0.431000000000000,
146000.000000000000000,-0.000078300000000,-0.000071300000000,-0.000064500000000,-0.000000027100000,0.000000054200000,0.000068100000000,0.000119000000000,-0.000002930000000,-0.000140000000000,0.074700000000000,0.000503000000000,-0.076900000000000,0.000061800000000,0.000732000000000,0.366000000000000,0.432000000000000,
146000.000000000000000,-0.000078400000000,-0.000071400000000,-0.000064500000000,-0.000000027200000,0.000000057900000,0.000068100000000,0.000119000000000,-0.000002970000000,-0.000140000000000,0.074800000000000,0.000503000000000,-0.077100000000000,0.000063500000000,0.000734000000000,0.367000000000000,0.432000000000000,
146000.000000000000000,-0.000078500000000,-0.000071400000000,-0.000064600000000,-0.000000027100000,0.000000059800000,0.000068200000000,0.000119000000000,-0.000003000000000,-0.000140000000000,0.075000000000000,0.000503000000000,-0.077200000000000,0.000064900000000,0.000736000000000,0.367000000000000,0.433000000000000,
146000.000000000000000,-0.000078500000000,-0.000071500000000,-0.000064600000000,-0.000000027100000,0.000000064800000,0.000068200000000,0.000119000000000,-0.000003050000000,-0.000140000000000,0.075100000000000,0.000504000000000,-0.077300000000000,0.000067200000000,0.000739000000000,0.367000000000000,0.433000000000000,
147000.000000000000000,-0.000078600000000,-0.000071500000000,-0.000064700000000,-0.000000027100000,0.000000066700000,0.000068200000000,0.000119000000000,-0.000003080000000,-0.000140000000000,0.075200000000000,0.000504000000000,-0.077500000000000,0.000068300000000,0.000741000000000,0.367000000000000,0.433000000000000,
147000.000000000000000,-0.000078600000000,-0.000071500000000,-0.000064700000000,-0.000000027000000,0.000000062300000,0.000068200000000,0.000119000000000,-0.000003080000000,-0.000140000000000,0.075400000000000,0.000504000000000,-0.077600000000000,0.000066400000000,0.000738000000000,0.368000000000000,0.434000000000000,
147000.000000000000000,-0.000078600000000,-0.000071500000000,-0.000064600000000,-0.000000027000000,0.000000054600000,0.000068200000000,0.000119000000000,-0.000003040000000,-0.000140000000000,0.075500000000000,0.000504000000000,-0.077800000000000,0.000063200000000,0.000734000000000,0.368000000000000,0.434000000000000,
147000.000000000000000,-0.000078600000000,-0.000071500000000,-0.000064600000000,-0.000000027000000,0.000000045200000,0.000068200000000,0.000119000000000,-0.000003000000000,-0.000140000000000,0.075700000000000,0.000504000000000,-0.077900000000000,0.000059600000000,0.000729000000000,0.368000000000000,0.434000000000000,
147000.000000000000000,-0.000078600000000,-0.000071500000000,-0.000064600000000,-0.000000026800000,0.000000038700000,0.000068300000000,0.000119000000000,-0.000003010000000,-0.000140000000000,0.075800000000000,0.000504000000000,-0.078100000000000,0.000057900000000,0.000726000000000,0.369000000000000,0.435000000000000,
147000.000000000000000,-0.000078700000000,-0.000071600000000,-0.000064700000000,-0.000000026600000,0.000000031600000,0.000068300000000,0.000119000000000,-0.000003030000000,-0.000140000000000,0.075900000000000,0.000504000000000,-0.078200000000000,0.000056400000000,0.000725000000000,0.369000000000000,0.435000000000000,
147000.000000000000000,-0.000078700000000,-0.000071600000000,-0.000064600000000,-0.000000026400000,0.000000021000000,0.000068300000000,0.000119000000000,-0.000003010000000,-0.000140000000000,0.076100000000000,0.000504000000000,-0.078300000000000,0.000053100000000,0.000721000000000,0.369000000000000,0.436000000000000,
147000.000000000000000,-0.000078700000000,-0.000071600000000,-0.000064600000000,-0.000000026300000,0.000000009390000,0.000068300000000,0.000119000000000,-0.000002990000000,-0.000140000000000,0.076200000000000,0.000504000000000,-0.078500000000000,0.000049400000000,0.000716000000000,0.369000000000000,0.436000000000000,
147000.000000000000000,-0.000078700000000,-0.000071600000000,-0.000064600000000,-0.000000026300000,0.000000004640000,0.000068300000000,0.000119000000000,-0.000002980000000,-0.000140000000000,0.076400000000000,0.000504000000000,-0.078600000000000,0.000047400000000,0.000713000000000,0.370000000000000,0.436000000000000,
147000.000000000000000,-0.000078700000000,-0.000071600000000,-0.000064600000000,-0.000000026400000,0.000000007720000,0.000068300000000,0.000119000000000,-0.000002980000000,-0.000140000000000,0.076500000000000,0.000504000000000,-0.078800000000000,0.000047800000000,0.000714000000000,0.370000000000000,0.437000000000000,
148000.000000000000000,-0.000078800000000,-0.000071600000000,-0.000064700000000,-0.000000026400000,0.000000011100000,0.000068300000000,0.000119000000000,-0.000003000000000,-0.000140000000000,0.076600000000000,0.000504000000000,-0.078900000000000,0.000049100000000,0.000715000000000,0.370000000000000,0.437000000000000,
148000.000000000000000,-0.000078800000000,-0.000071700000000,-0.000064700000000,-0.000000026400000,0.000000012300000,0.000068400000000,0.000119000000000,-0.000003030000000,-0.000140000000000,0.076800000000000,0.000505000000000,-0.079100000000000,0.000049700000000,0.000715000000000,0.371000000000000,0.437000000000000,
148000.000000000000000,-0.000078900000000,-0.000071700000000,-0.000064700000000,-0.000000026500000,0.000000015600000,0.000068400000000,0.000119000000000,-0.000003070000000,-0.000141000000000,0.076900000000000,0.000505000000000,-0.079200000000000,0.000051200000000,0.000718000000000,0.371000000000000,0.438000000000000,
148000.000000000000000,-0.000078900000000,-0.000071800000000,-0.000064800000000,-0.000000026500000,0.000000023900000,0.000068400000000,0.000119000000000,-0.000003120000000,-0.000141000000000,0.077100000000000,0.000506000000000,-0.079300000000000,0.000054700000000,0.000723000000000,0.371000000000000,0.438000000000000,
148000.000000000000000,-0.000079000000000,-0.000071900000000,-0.000064900000000,-0.000000026700000,0.000000036100000,0.000068400000000,0.000119000000000,-0.000003180000000,-0.000141000000000,0.077200000000000,0.000506000000000,-0.079500000000000,0.000059200000000,0.000729000000000,0.372000000000000,0.438000000000000,
148000.000000000000000,-0.000079100000000,-0.000071900000000,-0.000064900000000,-0.000000026800000,0.000000050800000,0.000068400000000,0.000119000000000,-0.000003240000000,-0.000141000000000,0.077400000000000,0.000507000000000,-0.079600000000000,0.000063900000000,0.000735000000000,0.372000000000000,0.439000000000000,
148000.000000000000000,-0.000079100000000,-0.000071900000000,-0.000064900000000,-0.000000026900000,0.000000055900000,0.000068400000000,0.000119000000000,-0.000003240000000,-0.000141000000000,0.077500000000000,0.000507000000000,-0.079800000000000,0.000065300000000,0.000736000000000,0.372000000000000,0.439000000000000,
148000.000000000000000,-0.000079200000000,-0.000072000000000,-0.000065000000000,-0.000000026900000,0.000000056700000,0.000068400000000,0.000119000000000,-0.000003260000000,-0.000141000000000,0.077600000000000,0.000507000000000,-0.079900000000000,0.000065600000000,0.000736000000000,0.372000000000000,0.440000000000000,
148000.000000000000000,-0.000079200000000,-0.000072000000000,-0.000065000000000,-0.000000027000000,0.000000062300000,0.000068500000000,0.000119000000000,-0.000003290000000,-0.000141000000000,0.077800000000000,0.000508000000000,-0.080100000000000,0.000067400000000,0.000739000000000,0.373000000000000,0.440000000000000,
148000.000000000000000,-0.000079300000000,-0.000072100000000,-0.000065100000000,-0.000000027100000,0.000000066500000,0.000068500000000,0.000119000000000,-0.000003330000000,-0.000141000000000,0.077900000000000,0.000508000000000,-0.080200000000000,0.000069200000000,0.000742000000000,0.373000000000000,0.440000000000000,
149000.000000000000000,-0.000079400000000,-0.000072100000000,-0.000065100000000,-0.000000027000000,0.000000063700000,0.000068500000000,0.000119000000000,-0.000003360000000,-0.000141000000000,0.078100000000000,0.000509000000000,-0.080300000000000,0.000069200000000,0.000742000000000,0.373000000000000,0.441000000000000,
149000.000000000000000,-0.000079400000000,-0.000072100000000,-0.000065100000000,-0.000000026800000,0.000000056200000,0.000068500000000,0.000119000000000,-0.000003350000000,-0.000141000000000,0.078200000000000,0.000509000000000,-0.080500000000000,0.000066700000000,0.000739000000000,0.374000000000000,0.441000000000000,
149000.000000000000000,-0.000079400000000,-0.000072100000000,-0.000065100000000,-0.000000026700000,0.000000044400000,0.000068500000000,0.000119000000000,-0.000003320000000,-0.000141000000000,0.078400000000000,0.000508000000000,-0.080600000000000,0.000062700000000,0.000733000000000,0.374000000000000,0.441000000000000,
149000.000000000000000,-0.000079400000000,-0.000072100000000,-0.000065000000000,-0.000000026600000,0.000000036600000,0.000068500000000,0.000119000000000,-0.000003300000000,-0.000141000000000,0.078500000000000,0.000508000000000,-0.080800000000000,0.000059800000000,0.000728000000000,0.374000000000000,0.442000000000000,
149000.000000000000000,-0.000079400000000,-0.000072100000000,-0.000065000000000,-0.000000026600000,0.000000033300000,0.000068600000000,0.000119000000000,-0.000003280000000,-0.000141000000000,0.078600000000000,0.000508000000000,-0.080900000000000,0.000057900000000,0.000726000000000,0.374000000000000,0.442000000000000,
149000.000000000000000,-0.000079400000000,-0.000072100000000,-0.000065000000000,-0.000000026600000,0.000000028400000,0.000068600000000,0.000119000000000,-0.000003260000000,-0.000141000000000,0.078800000000000,0.000508000000000,-0.081100000000000,0.000056000000000,0.000725000000000,0.375000000000000,0.443000000000000,
149000.000000000000000,-0.000079400000000,-0.000072100000000,-0.000065000000000,-0.000000026400000,0.000000017000000,0.000068600000000,0.000119000000000,-0.000003260000000,-0.000141000000000,0.078900000000000,0.000508000000000,-0.081200000000000,0.000052800000000,0.000720000000000,0.375000000000000,0.443000000000000,
149000.000000000000000,-0.000079400000000,-0.000072100000000,-0.000065000000000,-0.000000026200000,0.000000007920000,0.000068600000000,0.000119000000000,-0.000003260000000,-0.000141000000000,0.079100000000000,0.000508000000000,-0.081400000000000,0.000050200000000,0.000717000000000,0.375000000000000,0.443000000000000,
149000.000000000000000,-0.000079500000000,-0.000072200000000,-0.000065100000000,-0.000000026000000,0.000000005120000,0.000068600000000,0.000119000000000,-0.000003290000000,-0.000141000000000,0.079200000000000,0.000508000000000,-0.081500000000000,0.000050200000000,0.000717000000000,0.376000000000000,0.444000000000000,
149000.000000000000000,-0.000079500000000,-0.000072200000000,-0.000065100000000,-0.000000026100000,0.000000008420000,0.000068600000000,0.000120000000000,-0.000003310000000,-0.000141000000000,0.079400000000000,0.000509000000000,-0.081600000000000,0.000051300000000,0.000718000000000,0.376000000000000,0.444000000000000,
150000.000000000000000,-0.000079600000000,-0.000072200000000,-0.000065100000000,-0.000000026200000,0.000000012800000,0.000068600000000,0.000120000000000,-0.000003320000000,-0.000141000000000,0.079500000000000,0.000509000000000,-0.081800000000000,0.000052400000000,0.000719000000000,0.376000000000000,0.444000000000000,
150000.000000000000000,-0.000079600000000,-0.000072300000000,-0.000065100000000,-0.000000026400000,0.000000018300000,0.000068700000000,0.000120000000000,-0.000003320000000,-0.000141000000000,0.079600000000000,0.000509000000000,-0.081900000000000,0.000053400000000,0.000721000000000,0.377000000000000,0.445000000000000,
150000.000000000000000,-0.000079700000000,-0.000072300000000,-0.000065200000000,-0.000000026500000,0.000000024700000,0.000068700000000,0.000120000000000,-0.000003360000000,-0.000141000000000,0.079800000000000,0.000509000000000,-0.082100000000000,0.000055400000000,0.000723000000000,0.377000000000000,0.445000000000000,
150000.000000000000000,-0.000079800000000,-0.000072400000000,-0.000065200000000,-0.000000026600000,0.000000033900000,0.000068700000000,0.000120000000000,-0.000003430000000,-0.000142000000000,0.079900000000000,0.000510000000000,-0.082200000000000,0.000059500000000,0.000728000000000,0.377000000000000,0.445000000000000,
150000.000000000000000,-0.000079900000000,-0.000072500000000,-0.000065300000000,-0.000000026600000,0.000000047000000,0.000068700000000,0.000120000000000,-0.000003500000000,-0.000142000000000,0.080100000000000,0.000511000000000,-0.082400000000000,0.000064700000000,0.000736000000000,0.377000000000000,0.446000000000000,
150000.000000000000000,-0.000079900000000,-0.000072500000000,-0.000065400000000,-0.000000026700000,0.000000053500000,0.000068700000000,0.000120000000000,-0.000003550000000,-0.000142000000000,0.080200000000000,0.000511000000000,-0.082500000000000,0.000067700000000,0.000740000000000,0.378000000000000,0.446000000000000,
150000.000000000000000,-0.000080000000000,-0.000072600000000,-0.000065400000000,-0.000000026700000,0.000000055300000,0.000068700000000,0.000120000000000,-0.000003570000000,-0.000142000000000,0.080400000000000,0.000512000000000,-0.082700000000000,0.000068500000000,0.000740000000000,0.378000000000000,0.447000000000000,
150000.000000000000000,-0.000080000000000,-0.000072600000000,-0.000065400000000,-0.000000026900000,0.000000059900000,0.000068700000000,0.000120000000000,-0.000003570000000,-0.000142000000000,0.080500000000000,0.000512000000000,-0.082800000000000,0.000069000000000,0.000741000000000,0.378000000000000,0.447000000000000,
150000.000000000000000,-0.000080000000000,-0.000072600000000,-0.000065400000000,-0.000000027000000,0.000000064000000,0.000068800000000,0.000120000000000,-0.000003590000000,-0.000142000000000,0.080700000000000,0.000512000000000,-0.083000000000000,0.000069900000000,0.000742000000000,0.379000000000000,0.447000000000000,
150000.000000000000000,-0.000080100000000,-0.000072700000000,-0.000065400000000,-0.000000026900000,0.000000063400000,0.000068800000000,0.000120000000000,-0.000003600000000,-0.000142000000000,0.080800000000000,0.000512000000000,-0.083100000000000,0.000070100000000,0.000742000000000,0.379000000000000,0.448000000000000,
151000.000000000000000,-0.000080100000000,-0.000072700000000,-0.000065500000000,-0.000000026800000,0.000000057500000,0.000068800000000,0.000120000000000,-0.000003610000000,-0.000142000000000,0.081000000000000,0.000512000000000,-0.083300000000000,0.000068300000000,0.000740000000000,0.379000000000000,0.448000000000000,
151000.000000000000000,-0.000080100000000,-0.000072700000000,-0.000065500000000,-0.000000026700000,0.000000047100000,0.000068800000000,0.000120000000000,-0.000003600000000,-0.000142000000000,0.081100000000000,0.000512000000000,-0.083400000000000,0.000065400000000,0.000736000000000,0.379000000000000,0.448000000000000,
151000.000000000000000,-0.000080100000000,-0.000072700000000,-0.000065500000000,-0.000000026500000,0.000000036100000,0.000068800000000,0.000120000000000,-0.000003590000000,-0.000142000000000,0.081200000000000,0.000512000000000,-0.083500000000000,0.000062200000000,0.000732000000000,0.380000000000000,0.449000000000000,
151000.000000000000000,-0.000080200000000,-0.000072700000000,-0.000065500000000,-0.000000026400000,0.000000031800000,0.000068800000000,0.000120000000000,-0.000003590000000,-0.000142000000000,0.081400000000000,0.000512000000000,-0.083700000000000,0.000060600000000,0.000731000000000,0.380000000000000,0.449000000000000,
151000.000000000000000,-0.000080200000000,-0.000072700000000,-0.000065500000000,-0.000000026400000,0.000000027700000,0.000068900000000,0.000120000000000,-0.000003580000000,-0.000142000000000,0.081500000000000,0.000512000000000,-0.083800000000000,0.000058800000000,0.000729000000000,0.380000000000000,0.449000000000000,
151000.000000000000000,-0.000080200000000,-0.000072700000000,-0.000065400000000,-0.000000026300000,0.000000018900000,0.000068900000000,0.000120000000000,-0.000003550000000,-0.000142000000000,0.081700000000000,0.000512000000000,-0.084000000000000,0.000055400000000,0.000723000000000,0.381000000000000,0.450000000000000,
151000.000000000000000,-0.000080200000000,-0.000072700000000,-0.000065400000000,-0.000000026200000,0.000000011100000,0.000068900000000,0.000120000000000,-0.000003520000000,-0.000142000000000,0.081800000000000,0.000512000000000,-0.084100000000000,0.000052300000000,0.000719000000000,0.381000000000000,0.450000000000000,
151000.000000000000000,-0.000080200000000,-0.000072700000000,-0.000065400000000,-0.000000026100000,0.000000007700000,0.000068900000000,0.000120000000000,-0.000003540000000,-0.000142000000000,0.082000000000000,0.000512000000000,-0.084300000000000,0.000051300000000,0.000718000000000,0.381000000000000,0.451000000000000,
151000.000000000000000,-0.000080300000000,-0.000072800000000,-0.000065500000000,-0.000000026100000,0.000000009610000,0.000068900000000,0.000120000000000,-0.000003570000000,-0.000142000000000,0.082100000000000,0.000513000000000,-0.084400000000000,0.000052700000000,0.000720000000000,0.382000000000000,0.451000000000000,
151000.000000000000000,-0.000080300000000,-0.000072800000000,-0.000065500000000,-0.000000026100000,0.000000014900000,0.000068900000000,0.000120000000000,-0.000003620000000,-0.000142000000000,0.082300000000000,0.000513000000000,-0.084600000000000,0.000055400000000,0.000724000000000,0.382000000000000,0.451000000000000,
152000.000000000000000,-0.000080400000000,-0.000072900000000,-0.000065600000000,-0.000000026100000,0.000000017900000,0.000068900000000,0.000120000000000,-0.000003660000000,-0.000142000000000,0.082400000000000,0.000514000000000,-0.084700000000000,0.000056700000000,0.000726000000000,0.382000000000000,0.452000000000000,
152000.000000000000000,-0.000080500000000,-0.000072900000000,-0.000065600000000,-0.000000026300000,0.000000022800000,0.000069000000000,0.000120000000000,-0.000003680000000,-0.000142000000000,0.082600000000000,0.000514000000000,-0.084900000000000,0.000058000000000,0.000727000000000,0.382000000000000,0.452000000000000,
152000.000000000000000,-0.000080500000000,-0.000073000000000,-0.000065600000000,-0.000000026400000,0.000000031300000,0.000069000000000,0.000120000000000,-0.000003690000000,-0.000142000000000,0.082700000000000,0.000514000000000,-0.085000000000000,0.000060700000000,0.000730000000000,0.383000000000000,0.452000000000000,
152000.000000000000000,-0.000080600000000,-0.000073000000000,-0.000065700000000,-0.000000026700000,0.000000044800000,0.000069000000000,0.000120000000000,-0.000003740000000,-0.000143000000000,0.082800000000000,0.000515000000000,-0.085100000000000,0.000064800000000,0.000735000000000,0.383000000000000,0.453000000000000,
152000.000000000000000,-0.000080600000000,-0.000073100000000,-0.000065700000000,-0.000000026800000,0.000000055100000,0.000069000000000,0.000120000000000,-0.000003790000000,-0.000143000000000,0.083000000000000,0.000515000000000,-0.085300000000000,0.000068600000000,0.000740000000000,0.383000000000000,0.453000000000000,
152000.000000000000000,-0.000080700000000,-0.000073100000000,-0.000065800000000,-0.000000026800000,0.000000057300000,0.000069000000000,0.000120000000000,-0.000003830000000,-0.000143000000000,0.083100000000000,0.000516000000000,-0.085500000000000,0.000070100000000,0.000742000000000,0.384000000000000,0.453000000000000,
152000.000000000000000,-0.000080800000000,-0.000073200000000,-0.000065800000000,-0.000000026800000,0.000000057600000,0.000069000000000,0.000120000000000,-0.000003850000000,-0.000143000000000,0.083300000000000,0.000516000000000,-0.085600000000000,0.000070800000000,0.000743000000000,0.384000000000000,0.454000000000000,
152000.000000000000000,-0.000080800000000,-0.000073200000000,-0.000065900000000,-0.000000026700000,0.000000057300000,0.000069000000000,0.000120000000000,-0.000003890000000,-0.000143000000000,0.083400000000000,0.000516000000000,-0.085700000000000,0.000071400000000,0.000744000000000,0.384000000000000,0.454000000000000,
152000.000000000000000,-0.000080900000000,-0.000073300000000,-0.000065900000000,-0.000000026700000,0.000000058100000,0.000069100000000,0.000120000000000,-0.000003900000000,-0.000143000000000,0.083600000000000,0.000517000000000,-0.085900000000000,0.000071700000000,0.000744000000000,0.384000000000000,0.455000000000000,
152000.000000000000000,-0.000080900000000,-0.000073300000000,-0.000065900000000,-0.000000026800000,0.000000057700000,0.000069100000000,0.000120000000000,-0.000003890000000,-0.000143000000000,0.083700000000000,0.000517000000000,-0.086000000000000,0.000070800000000,0.000743000000000,0.385000000000000,0.455000000000000,
153000.000000000000000,-0.000080900000000,-0.000073200000000,-0.000065800000000,-0.000000026700000,0.000000050900000,0.000069100000000,0.000120000000000,-0.000003850000000,-0.000143000000000,0.083900000000000,0.000516000000000,-0.086200000000000,0.000067600000000,0.000739000000000,0.385000000000000,0.455000000000000,
153000.000000000000000,-0.000080900000000,-0.000073200000000,-0.000065800000000,-0.000000026600000,0.000000039400000,0.000069100000000,0.000120000000000,-0.000003840000000,-0.000143000000000,0.084000000000000,0.000516000000000,-0.086300000000000,0.000063700000000,0.000734000000000,0.385000000000000,0.456000000000000,
153000.000000000000000,-0.000080900000000,-0.000073300000000,-0.000065800000000,-0.000000026400000,0.000000032200000,0.000069100000000,0.000120000000000,-0.000003840000000,-0.000143000000000,0.084200000000000,0.000516000000000,-0.086500000000000,0.000061800000000,0.000732000000000,0.386000000000000,0.456000000000000,
153000.000000000000000,-0.000080900000000,-0.000073300000000,-0.000065900000000,-0.000000026300000,0.000000026700000,0.000069100000000,0.000120000000000,-0.000003850000000,-0.000143000000000,0.084300000000000,0.000517000000000,-0.086600000000000,0.000060600000000,0.000731000000000,0.386000000000000,0.456000000000000,
153000.000000000000000,-0.000081000000000,-0.000073300000000,-0.000065900000000,-0.000000026100000,0.000000020000000,0.000069100000000,0.000120000000000,-0.000003860000000,-0.000143000000000,0.084500000000000,0.000517000000000,-0.086800000000000,0.000058900000000,0.000729000000000,0.386000000000000,0.457000000000000,
153000.000000000000000,-0.000081000000000,-0.000073300000000,-0.000065900000000,-0.000000026000000,0.000000012600000,0.000069200000000,0.000121000000000,-0.000003840000000,-0.000143000000000,0.084600000000000,0.000517000000000,-0.086900000000000,0.000056100000000,0.000725000000000,0.387000000000000,0.457000000000000,
153000.000000000000000,-0.000081000000000,-0.000073300000000,-0.000065800000000,-0.000000026100000,0.000000009030000,0.000069200000000,0.000121000000000,-0.000003820000000,-0.000143000000000,0.084800000000000,0.000516000000000,-0.087100000000000,0.000054000000000,0.000722000000000,0.387000000000000,0.458000000000000,
153000.000000000000000,-0.000081000000000,-0.000073300000000,-0.000065800000000,-0.000000026100000,0.000000009630000,0.000069200000000,0.000121000000000,-0.000003830000000,-0.000143000000000,0.084900000000000,0.000517000000000,-0.087200000000000,0.000054000000000,0.000722000000000,0.387000000000000,0.458000000000000,
153000.000000000000000,-0.000081100000000,-0.000073400000000,-0.000065900000000,-0.000000026100000,0.000000015500000,0.000069200000000,0.000121000000000,-0.000003860000000,-0.000143000000000,0.085100000000000,0.000517000000000,-0.087400000000000,0.000056100000000,0.000724000000000,0.387000000000000,0.458000000000000,
153000.000000000000000,-0.000081100000000,-0.000073400000000,-0.000065900000000,-0.000000026300000,0.000000021900000,0.000069200000000,0.000121000000000,-0.000003910000000,-0.000143000000000,0.085200000000000,0.000518000000000,-0.087500000000000,0.000058500000000,0.000728000000000,0.388000000000000,0.459000000000000,
154000.000000000000000,-0.000081200000000,-0.000073500000000,-0.000066000000000,-0.000000026200000,0.000000023500000,0.000069200000000,0.000121000000000,-0.000003950000000,-0.000143000000000,0.085300000000000,0.000518000000000,-0.087700000000000,0.000060200000000,0.000729000000000,0.388000000000000,0.459000000000000,
154000.000000000000000,-0.000081300000000,-0.000073500000000,-0.000066000000000,-0.000000026300000,0.000000029700000,0.000069300000000,0.000121000000000,-0.000003990000000,-0.000143000000000,0.085500000000000,0.000518000000000,-0.087800000000000,0.000062800000000,0.000733000000000,0.388000000000000,0.459000000000000,
154000.000000000000000,-0.000081400000000,-0.000073600000000,-0.000066100000000,-0.000000026500000,0.000000040600000,0.000069300000000,0.000121000000000,-0.000004050000000,-0.000143000000000,0.085700000000000,0.000519000000000,-0.088000000000000,0.000066700000000,0.000738000000000,0.389000000000000,0.460000000000000,
154000.000000000000000,-0.000081400000000,-0.000073700000000,-0.000066100000000,-0.000000026600000,0.000000050700000,0.000069300000000,0.000121000000000,-0.000004080000000,-0.000143000000000,0.085800000000000,0.000520000000000,-0.088100000000000,0.000070200000000,0.000742000000000,0.389000000000000,0.460000000000000,
154000.000000000000000,-0.000081500000000,-0.000073700000000,-0.000066200000000,-0.000000026800000,0.000000057300000,0.000069300000000,0.000121000000000,-0.000004090000000,-0.000144000000000,0.085900000000000,0.000520000000000,-0.088300000000000,0.000072000000000,0.000744000000000,0.389000000000000,0.460000000000000,
154000.000000000000000,-0.000081500000000,-0.000073700000000,-0.000066200000000,-0.000000026800000,0.000000059300000,0.000069300000000,0.000121000000000,-0.000004100000000,-0.000144000000000,0.086100000000000,0.000520000000000,-0.088400000000000,0.000072300000000,0.000744000000000,0.389000000000000,0.461000000000000,
154000.000000000000000,-0.000081500000000,-0.000073800000000,-0.000066200000000,-0.000000026700000,0.000000057400000,0.000069300000000,0.000121000000000,-0.000004120000000,-0.000144000000000,0.086200000000000,0.000520000000000,-0.088600000000000,0.000071900000000,0.000744000000000,0.390000000000000,0.461000000000000,
154000.000000000000000,-0.000081600000000,-0.000073800000000,-0.000066200000000,-0.000000026700000,0.000000056900000,0.000069300000000,0.000121000000000,-0.000004150000000,-0.000144000000000,0.086400000000000,0.000520000000000,-0.088700000000000,0.000072600000000,0.000745000000000,0.390000000000000,0.461000000000000,
154000.000000000000000,-0.000081600000000,-0.000073800000000,-0.000066300000000,-0.000000026600000,0.000000055000000,0.000069400000000,0.000121000000000,-0.000004180000000,-0.000144000000000,0.086500000000000,0.000521000000000,-0.088900000000000,0.000072700000000,0.000745000000000,0.390000000000000,0.462000000000000,
154000.000000000000000,-0.000081700000000,-0.000073900000000,-0.000066300000000,-0.000000026500000,0.000000048700000,0.000069400000000,0.000121000000000,-0.000004180000000,-0.000144000000000,0.086700000000000,0.000521000000000,-0.089000000000000,0.000070700000000,0.000743000000000,0.391000000000000,0.462000000000000,
155000.000000000000000,-0.000081700000000,-0.000073800000000,-0.000066300000000,-0.000000026400000,0.000000038800000,0.000069400000000,0.000121000000000,-0.000004150000000,-0.000144000000000,0.086800000000000,0.000521000000000,-0.089200000000000,0.000066900000000,0.000738000000000,0.391000000000000,0.463000000000000,
155000.000000000000000,-0.000081700000000,-0.000073800000000,-0.000066200000000,-0.000000026300000,0.000000031400000,0.000069400000000,0.000121000000000,-0.000004110000000,-0.000144000000000,0.087000000000000,0.000520000000000,-0.089300000000000,0.000063400000000,0.000734000000000,0.391000000000000,0.463000000000000,
155000.000000000000000,-0.000081700000000,-0.000073800000000,-0.000066200000000,-0.000000026400000,0.000000027100000,0.000069400000000,0.000121000000000,-0.000004100000000,-0.000144000000000,0.087100000000000,0.000520000000000,-0.089500000000000,0.000061300000000,0.000731000000000,0.391000000000000,0.463000000000000,
155000.000000000000000,-0.000081700000000,-0.000073800000000,-0.000066200000000,-0.000000026300000,0.000000023100000,0.000069400000000,0.000121000000000,-0.000004100000000,-0.000144000000000,0.087300000000000,0.000520000000000,-0.089600000000000,0.000060200000000,0.000730000000000,0.392000000000000,0.464000000000000,
155000.000000000000000,-0.000081700000000,-0.000073900000000,-0.000066200000000,-0.000000026100000,0.000000015100000,0.000069400000000,0.000121000000000,-0.000004110000000,-0.000144000000000,0.087400000000000,0.000521000000000,-0.089800000000000,0.000058300000000,0.000727000000000,0.392000000000000,0.464000000000000,
155000.000000000000000,-0.000081800000000,-0.000073900000000,-0.000066300000000,-0.000000025900000,0.000000009340000,0.000069500000000,0.000121000000000,-0.000004130000000,-0.000144000000000,0.087600000000000,0.000521000000000,-0.089900000000000,0.000056900000000,0.000726000000000,0.392000000000000,0.464000000000000,
155000.000000000000000,-0.000081800000000,-0.000073900000000,-0.000066300000000,-0.000000025800000,0.000000006340000,0.000069500000000,0.000121000000000,-0.000004150000000,-0.000144000000000,0.087700000000000,0.000521000000000,-0.090100000000000,0.000056400000000,0.000725000000000,0.393000000000000,0.465000000000000,
155000.000000000000000,-0.000081900000000,-0.000074000000000,-0.000066300000000,-0.000000025900000,0.000000012500000,0.000069500000000,0.000121000000000,-0.000004170000000,-0.000144000000000,0.087900000000000,0.000521000000000,-0.090200000000000,0.000058200000000,0.000728000000000,0.393000000000000,0.465000000000000,
155000.000000000000000,-0.000081900000000,-0.000074000000000,-0.000066300000000,-0.000000026200000,0.000000022000000,0.000069500000000,0.000121000000000,-0.000004190000000,-0.000144000000000,0.088000000000000,0.000522000000000,-0.090400000000000,0.000060800000000,0.000731000000000,0.393000000000000,0.465000000000000,
155000.000000000000000,-0.000081900000000,-0.000074000000000,-0.000066400000000,-0.000000026300000,0.000000026900000,0.000069500000000,0.000121000000000,-0.000004200000000,-0.000144000000000,0.088200000000000,0.000522000000000,-0.090500000000000,0.000062200000000,0.000732000000000,0.393000000000000,0.466000000000000,
156000.000000000000000,-0.000082000000000,-0.000074100000000,-0.000066400000000,-0.000000026400000,0.000000032300000,0.000069500000000,0.000121000000000,-0.000004240000000,-0.000144000000000,0.088300000000000,0.000522000000000,-0.090700000000000,0.000064200000000,0.000734000000000,0.394000000000000,0.466000000000000,
156000.000000000000000,-0.000082100000000,-0.000074200000000,-0.000066500000000,-0.000000026400000,0.000000038600000,0.000069500000000,0.000121000000000,-0.000004300000000,-0.000144000000000,0.088500000000000,0.000523000000000,-0.090800000000000,0.000067300000000,0.000738000000000,0.394000000000000,0.467000000000000,
156000.000000000000000,-0.000082200000000,-0.000074200000000,-0.000066500000000,-0.000000026400000,0.000000046400000,0.000069600000000,0.000121000000000,-0.000004360000000,-0.000144000000000,0.088600000000000,0.000524000000000,-0.091000000000000,0.000071200000000,0.000743000000000,0.394000000000000,0.467000000000000,
156000.000000000000000,-0.000082300000000,-0.000074300000000,-0.000066600000000,-0.000000026600000,0.000000054900000,0.000069600000000,0.000121000000000,-0.000004410000000,-0.000144000000000,0.088800000000000,0.000524000000000,-0.091100000000000,0.000074600000000,0.000748000000000,0.395000000000000,0.467000000000000,
156000.000000000000000,-0.000082300000000,-0.000074300000000,-0.000066600000000,-0.000000026700000,0.000000057600000,0.000069600000000,0.000121000000000,-0.000004420000000,-0.000144000000000,0.088900000000000,0.000524000000000,-0.091300000000000,0.000075000000000,0.000748000000000,0.395000000000000,0.468000000000000,
156000.000000000000000,-0.000082300000000,-0.000074300000000,-0.000066600000000,-0.000000026700000,0.000000056000000,0.000069600000000,0.000121000000000,-0.000004400000000,-0.000144000000000,0.089100000000000,0.000524000000000,-0.091400000000000,0.000073800000000,0.000746000000000,0.395000000000000,0.468000000000000,
156000.000000000000000,-0.000082300000000,-0.000074300000000,-0.000066600000000,-0.000000026800000,0.000000055400000,0.000069600000000,0.000121000000000,-0.000004400000000,-0.000145000000000,0.089200000000000,0.000524000000000,-0.091600000000000,0.000073100000000,0.000745000000000,0.395000000000000,0.468000000000000,
156000.000000000000000,-0.000082400000000,-0.000074400000000,-0.000066600000000,-0.000000026700000,0.000000053900000,0.000069600000000,0.000121000000000,-0.000004420000000,-0.000145000000000,0.089400000000000,0.000525000000000,-0.091700000000000,0.000073000000000,0.000744000000000,0.396000000000000,0.469000000000000,
156000.000000000000000,-0.000082400000000,-0.000074400000000,-0.000066700000000,-0.000000026600000,0.000000049500000,0.000069700000000,0.000121000000000,-0.000004440000000,-0.000145000000000,0.089500000000000,0.000525000000000,-0.091900000000000,0.000072300000000,0.000744000000000,0.396000000000000,0.469000000000000,
156000.000000000000000,-0.000082400000000,-0.000074400000000,-0.000066700000000,-0.000000026400000,0.000000040100000,0.000069700000000,0.000121000000000,-0.000004440000000,-0.000145000000000,0.089700000000000,0.000525000000000,-0.092000000000000,0.000069700000000,0.000741000000000,0.396000000000000,0.469000000000000,
157000.000000000000000,-0.000082500000000,-0.000074400000000,-0.000066700000000,-0.000000026200000,0.000000030500000,0.000069700000000,0.000121000000000,-0.000004430000000,-0.000145000000000,0.089800000000000,0.000525000000000,-0.092200000000000,0.000066200000000,0.000738000000000,0.397000000000000,0.470000000000000,
157000.000000000000000,-0.000082500000000,-0.000074400000000,-0.000066600000000,-0.000000026100000,0.000000024300000,0.000069700000000,0.000121000000000,-0.000004410000000,-0.000145000000000,0.090000000000000,0.000525000000000,-0.092300000000000,0.000063600000000,0.000734000000000,0.397000000000000,0.470000000000000,
157000.000000000000000,-0.000082500000000,-0.000074400000000,-0.000066600000000,-0.000000026100000,0.000000021100000,0.000069700000000,0.000122000000000,-0.000004390000000,-0.000145000000000,0.090100000000000,0.000525000000000,-0.092500000000000,0.000061900000000,0.000732000000000,0.397000000000000,0.471000000000000,
157000.000000000000000,-0.000082500000000,-0.000074400000000,-0.000066600000000,-0.000000026100000,0.000000018600000,0.000069700000000,0.000122000000000,-0.000004390000000,-0.000145000000000,0.090300000000000,0.000525000000000,-0.092600000000000,0.000060700000000,0.000730000000000,0.397000000000000,0.471000000000000,
157000.000000000000000,-0.000082500000000,-0.000074500000000,-0.000066600000000,-0.000000026000000,0.000000013400000,0.000069700000000,0.000122000000000,-0.000004390000000,-0.000145000000000,0.090500000000000,0.000525000000000,-0.092800000000000,0.000059100000000,0.000728000000000,0.398000000000000,0.471000000000000,
157000.000000000000000,-0.000082600000000,-0.000074500000000,-0.000066700000000,-0.000000025900000,0.000000008850000,0.000069800000000,0.000122000000000,-0.000004410000000,-0.000145000000000,0.090600000000000,0.000525000000000,-0.093000000000000,0.000058300000000,0.000728000000000,0.398000000000000,0.472000000000000,
157000.000000000000000,-0.000082600000000,-0.000074500000000,-0.000066700000000,-0.000000025900000,0.000000011700000,0.000069800000000,0.000122000000000,-0.000004450000000,-0.000145000000000,0.090800000000000,0.000525000000000,-0.093100000000000,0.000060000000000,0.000730000000000,0.398000000000000,0.472000000000000,
157000.000000000000000,-0.000082700000000,-0.000074600000000,-0.000066800000000,-0.000000026000000,0.000000018600000,0.000069800000000,0.000122000000000,-0.000004490000000,-0.000145000000000,0.090900000000000,0.000526000000000,-0.093300000000000,0.000062700000000,0.000733000000000,0.399000000000000,0.472000000000000,
157000.000000000000000,-0.000082800000000,-0.000074700000000,-0.000066800000000,-0.000000026100000,0.000000025900000,0.000069800000000,0.000122000000000,-0.000004520000000,-0.000145000000000,0.091100000000000,0.000526000000000,-0.093400000000000,0.000065100000000,0.000736000000000,0.399000000000000,0.473000000000000,
157000.000000000000000,-0.000082800000000,-0.000074700000000,-0.000066800000000,-0.000000026300000,0.000000032000000,0.000069800000000,0.000122000000000,-0.000004530000000,-0.000145000000000,0.091200000000000,0.000527000000000,-0.093600000000000,0.000066700000000,0.000737000000000,0.399000000000000,0.473000000000000,
158000.000000000000000,-0.000082800000000,-0.000074700000000,-0.000066800000000,-0.000000026400000,0.000000037200000,0.000069800000000,0.000122000000000,-0.000004550000000,-0.000145000000000,0.091400000000000,0.000527000000000,-0.093700000000000,0.000068200000000,0.000738000000000,0.399000000000000,0.473000000000000,
158000.000000000000000,-0.000082900000000,-0.000074800000000,-0.000066900000000,-0.000000026600000,0.000000045400000,0.000069800000000,0.000122000000000,-0.000004600000000,-0.000145000000000,0.091500000000000,0.000527000000000,-0.093900000000000,0.000071200000000,0.000742000000000,0.400000000000000,0.474000000000000,
158000.000000000000000,-0.000083000000000,-0.000074800000000,-0.000067000000000,-0.000000026800000,0.000000053800000,0.000069900000000,0.000122000000000,-0.000004650000000,-0.000145000000000,0.091700000000000,0.000528000000000,-0.094000000000000,0.000074900000000,0.000747000000000,0.400000000000000,0.474000000000000,
158000.000000000000000,-0.000083100000000,-0.000074900000000,-0.000067000000000,-0.000000026700000,0.000000057500000,0.000069900000000,0.000122000000000,-0.000004700000000,-0.000145000000000,0.091800000000000,0.000528000000000,-0.094200000000000,0.000077200000000,0.000751000000000,0.400000000000000,0.475000000000000,
158000.000000000000000,-0.000083100000000,-0.000074900000000,-0.000067000000000,-0.000000026600000,0.000000054700000,0.000069900000000,0.000122000000000,-0.000004720000000,-0.000145000000000,0.092000000000000,0.000529000000000,-0.094300000000000,0.000076900000000,0.000750000000000,0.401000000000000,0.475000000000000,
158000.000000000000000,-0.000083100000000,-0.000075000000000,-0.000067000000000,-0.000000026500000,0.000000051600000,0.000069900000000,0.000122000000000,-0.000004730000000,-0.000145000000000,0.092100000000000,0.000529000000000,-0.094500000000000,0.000075600000000,0.000748000000000,0.401000000000000,0.475000000000000,
158000.000000000000000,-0.000083100000000,-0.000075000000000,-0.000067000000000,-0.000000026500000,0.000000049500000,0.000069900000000,0.000122000000000,-0.000004700000000,-0.000145000000000,0.092300000000000,0.000529000000000,-0.094600000000000,0.000074300000000,0.000746000000000,0.401000000000000,0.476000000000000,
158000.000000000000000,-0.000083200000000,-0.000075000000000,-0.000067000000000,-0.000000026600000,0.000000049300000,0.000069900000000,0.000122000000000,-0.000004690000000,-0.000145000000000,0.092400000000000,0.000529000000000,-0.094800000000000,0.000073300000000,0.000745000000000,0.401000000000000,0.476000000000000,
158000.000000000000000,-0.000083200000000,-0.000075000000000,-0.000067000000000,-0.000000026500000,0.000000043000000,0.000069900000000,0.000122000000000,-0.000004680000000,-0.000146000000000,0.092600000000000,0.000529000000000,-0.094900000000000,0.000071000000000,0.000742000000000,0.402000000000000,0.476000000000000,
158000.000000000000000,-0.000083200000000,-0.000075000000000,-0.000067000000000,-0.000000026300000,0.000000033900000,0.000070000000000,0.000122000000000,-0.000004690000000,-0.000146000000000,0.092700000000000,0.000529000000000,-0.095100000000000,0.000068200000000,0.000739000000000,0.402000000000000,0.477000000000000,
159000.000000000000000,-0.000083200000000,-0.000075000000000,-0.000067000000000,-0.000000026100000,0.000000024000000,0.000070000000000,0.000122000000000,-0.000004690000000,-0.000146000000000,0.092900000000000,0.000529000000000,-0.095300000000000,0.000065600000000,0.000737000000000,0.402000000000000,0.477000000000000,
159000.000000000000000,-0.000083300000000,-0.000075000000000,-0.000067100000000,-0.000000025900000,0.000000017100000,0.000070000000000,0.000122000000000,-0.000004710000000,-0.000146000000000,0.093000000000000,0.000529000000000,-0.095400000000000,0.000064200000000,0.000735000000000,0.403000000000000,0.477000000000000,
159000.000000000000000,-0.000083300000000,-0.000075100000000,-0.000067100000000,-0.000000026000000,0.000000017800000,0.000070000000000,0.000122000000000,-0.000004710000000,-0.000146000000000,0.093200000000000,0.000529000000000,-0.095600000000000,0.000064000000000,0.000736000000000,0.403000000000000,0.478000000000000,
159000.000000000000000,-0.000083300000000,-0.000075100000000,-0.000067100000000,-0.000000025900000,0.000000013800000,0.000070000000000,0.000122000000000,-0.000004700000000,-0.000146000000000,0.093300000000000,0.000529000000000,-0.095700000000000,0.000062100000000,0.000732000000000,0.403000000000000,0.478000000000000,
159000.000000000000000,-0.000083300000000,-0.000075100000000,-0.000067000000000,-0.000000025900000,0.000000011600000,0.000070000000000,0.000122000000000,-0.000004680000000,-0.000146000000000,0.093500000000000,0.000529000000000,-0.095900000000000,0.000060400000000,0.000729000000000,0.403000000000000,0.479000000000000,
159000.000000000000000,-0.000083400000000,-0.000075100000000,-0.000067100000000,-0.000000026100000,0.000000014600000,0.000070000000000,0.000122000000000,-0.000004690000000,-0.000146000000000,0.093700000000000,0.000529000000000,-0.096000000000000,0.000060600000000,0.000730000000000,0.404000000000000,0.479000000000000,
159000.000000000000000,-0.000083400000000,-0.000075100000000,-0.000067100000000,-0.000000026000000,0.000000018000000,0.000070100000000,0.000122000000000,-0.000004730000000,-0.000146000000000,0.093800000000000,0.000530000000000,-0.096200000000000,0.000063000000000,0.000732000000000,0.404000000000000,0.479000000000000,
159000.000000000000000,-0.000083500000000,-0.000075200000000,-0.000067200000000,-0.000000026200000,0.000000026600000,0.000070100000000,0.000122000000000,-0.000004800000000,-0.000146000000000,0.094000000000000,0.000530000000000,-0.096300000000000,0.000067000000000,0.000738000000000,0.404000000000000,0.480000000000000,
159000.000000000000000,-0.000083600000000,-0.000075300000000,-0.000067200000000,-0.000000026300000,0.000000032900000,0.000070100000000,0.000122000000000,-0.000004850000000,-0.000146000000000,0.094100000000000,0.000531000000000,-0.096500000000000,0.000070100000000,0.000743000000000,0.405000000000000,0.480000000000000,
159000.000000000000000,-0.000083700000000,-0.000075300000000,-0.000067300000000,-0.000000026300000,0.000000034600000,0.000070100000000,0.000122000000000,-0.000004890000000,-0.000146000000000,0.094300000000000,0.000531000000000,-0.096700000000000,0.000071500000000,0.000743000000000,0.405000000000000,0.480000000000000,
160000.000000000000000,-0.000083700000000,-0.000075400000000,-0.000067300000000,-0.000000026300000,0.000000042100000,0.000070100000000,0.000122000000000,-0.000004900000000,-0.000146000000000,0.094400000000000,0.000532000000000,-0.096800000000000,0.000073500000000,0.000746000000000,0.405000000000000,0.481000000000000,
160000.000000000000000,-0.000083700000000,-0.000075400000000,-0.000067300000000,-0.000000026700000,0.000000051400000,0.000070100000000,0.000122000000000,-0.000004920000000,-0.000146000000000,0.094600000000000,0.000532000000000,-0.096900000000000,0.000075800000000,0.000748000000000,0.405000000000000,0.481000000000000,
160000.000000000000000,-0.000083800000000,-0.000075500000000,-0.000067400000000,-0.000000027000000,0.000000051800000,0.000070200000000,0.000122000000000,-0.000005000000000,-0.000146000000000,0.094700000000000,0.000533000000000,-0.097100000000000,0.000077000000000,0.000749000000000,0.406000000000000,0.481000000000000,
160000.000000000000000,-0.000083900000000,-0.000075500000000,-0.000067400000000,-0.000000026300000,0.000000049700000,0.000070200000000,0.000122000000000,-0.000005000000000,-0.000146000000000,0.094900000000000,0.000533000000000,-0.097300000000000,0.000077400000000,0.000749000000000,0.406000000000000,0.482000000000000,
160000.000000000000000,-0.000083900000000,-0.000075600000000,-0.000067500000000,-0.000000027200000,0.000000062200000,0.000070200000000,0.000122000000000,-0.000005050000000,-0.000146000000000,0.095000000000000,0.000533000000000,-0.097400000000000,0.000080400000000,0.000756000000000,0.406000000000000,0.482000000000000,
160000.000000000000000,-0.000083900000000,-0.000075600000000,-0.000067500000000,-0.000000026800000,0.000000057300000,0.000070200000000,0.000122000000000,-0.000005030000000,-0.000146000000000,0.095200000000000,0.000533000000000,-0.097600000000000,0.000080600000000,0.000754000000000,0.407000000000000,0.483000000000000,
160000.000000000000000,-0.000084000000000,-0.000075600000000,-0.000067500000000,-0.000000026100000,0.000000042900000,0.000070200000000,0.000122000000000,-0.000005050000000,-0.000146000000000,0.095400000000000,0.000533000000000,-0.097700000000000,0.000077000000000,0.000747000000000,0.407000000000000,0.483000000000000,
160000.000000000000000,-0.000084000000000,-0.000075600000000,-0.000067400000000,-0.000000026200000,0.000000039600000,0.000070200000000,0.000122000000000,-0.000004990000000,-0.000146000000000,0.095500000000000,0.000533000000000,-0.097900000000000,0.000074200000000,0.000746000000000,0.407000000000000,0.483000000000000,
160000.000000000000000,-0.000084000000000,-0.000075600000000,-0.000067400000000,-0.000000026400000,0.000000037300000,0.000070200000000,0.000122000000000,-0.000004980000000,-0.000146000000000,0.095600000000000,0.000533000000000,-0.098000000000000,0.000071800000000,0.000745000000000,0.407000000000000,0.484000000000000,
160000.000000000000000,-0.000084000000000,-0.000075600000000,-0.000067400000000,-0.000000026900000,0.000000037700000,0.000070300000000,0.000123000000000,-0.000004990000000,-0.000146000000000,0.095800000000000,0.000533000000000,-0.098200000000000,0.000070900000000,0.000745000000000,0.408000000000000,0.484000000000000,
161000.000000000000000,-0.000084100000000,-0.000075600000000,-0.000067500000000,-0.000000026300000,0.000000028400000,0.000070300000000,0.000123000000000,-0.000005010000000,-0.000147000000000,0.096000000000000,0.000533000000000,-0.098400000000000,0.000069200000000,0.000741000000000,0.408000000000000,0.484000000000000,
161000.000000000000000,-0.000084100000000,-0.000075700000000,-0.000067500000000,-0.000000025900000,0.000000017100000,0.000070300000000,0.000123000000000,-0.000005010000000,-0.000147000000000,0.096100000000000,0.000533000000000,-0.098500000000000,0.000066500000000,0.000737000000000,0.408000000000000,0.485000000000000,
161000.000000000000000,-0.000084100000000,-0.000075700000000,-0.000067500000000,-0.000000025400000,0.000000004990000,0.000070300000000,0.000123000000000,-0.000005030000000,-0.000147000000000,0.096300000000000,0.000534000000000,-0.098700000000000,0.000063500000000,0.000732000000000,0.409000000000000,0.485000000000000,
161000.000000000000000,-0.000084200000000,-0.000075700000000,-0.000067500000000,-0.000000025600000,0.000000007570000,0.000070300000000,0.000123000000000,-0.000005040000000,-0.000147000000000,0.096400000000000,0.000534000000000,-0.098800000000000,0.000064100000000,0.000733000000000,0.409000000000000,0.485000000000000,
161000.000000000000000,-0.000084200000000,-0.000075700000000,-0.000067500000000,-0.000000026000000,0.000000021300000,0.000070300000000,0.000123000000000,-0.000005050000000,-0.000147000000000,0.096600000000000,0.000534000000000,-0.099000000000000,0.000067500000000,0.000739000000000,0.409000000000000,0.486000000000000,
161000.000000000000000,-0.000084300000000,-0.000075800000000,-0.000067600000000,-0.000000026700000,0.000000034500000,0.000070300000000,0.000123000000000,-0.000005080000000,-0.000147000000000,0.096700000000000,0.000534000000000,-0.099100000000000,0.000070800000000,0.000745000000000,0.409000000000000,0.486000000000000,
161000.000000000000000,-0.000084300000000,-0.000075800000000,-0.000067600000000,-0.000000026300000,0.000000028800000,0.000070400000000,0.000123000000000,-0.000005100000000,-0.000147000000000,0.096900000000000,0.000535000000000,-0.099300000000000,0.000070300000000,0.000741000000000,0.410000000000000,0.486000000000000,
161000.000000000000000,-0.000084300000000,-0.000075900000000,-0.000067600000000,-0.000000026200000,0.000000030200000,0.000070400000000,0.000123000000000,-0.000005120000000,-0.000147000000000,0.097100000000000,0.000535000000000,-0.099500000000000,0.000071300000000,0.000742000000000,0.410000000000000,0.487000000000000,
161000.000000000000000,-0.000084400000000,-0.000075900000000,-0.000067700000000,-0.000000026100000,0.000000035500000,0.000070400000000,0.000123000000000,-0.000005180000000,-0.000147000000000,0.097200000000000,0.000536000000000,-0.099600000000000,0.000074300000000,0.000746000000000,0.410000000000000,0.487000000000000,
161000.000000000000000,-0.000084500000000,-0.000076000000000,-0.000067800000000,-0.000000026000000,0.000000039000000,0.000070400000000,0.000123000000000,-0.000005240000000,-0.000147000000000,0.097400000000000,0.000536000000000,-0.099800000000000,0.000077200000000,0.000748000000000,0.411000000000000,0.488000000000000,
162000.000000000000000,-0.000084600000000,-0.000076100000000,-0.000067800000000,-0.000000026500000,0.000000053100000,0.000070400000000,0.000123000000000,-0.000005270000000,-0.000147000000000,0.097500000000000,0.000537000000000,-0.099900000000000,0.000081100000000,0.000754000000000,0.411000000000000,0.488000000000000,
162000.000000000000000,-0.000084600000000,-0.000076100000000,-0.000067800000000,-0.000000026900000,0.000000056900000,0.000070400000000,0.000123000000000,-0.000005260000000,-0.000147000000000,0.097700000000000,0.000537000000000,-0.100000000000000,0.000080900000000,0.000755000000000,0.411000000000000,0.488000000000000,
162000.000000000000000,-0.000084600000000,-0.000076100000000,-0.000067800000000,-0.000000026500000,0.000000046400000,0.000070400000000,0.000123000000000,-0.000005250000000,-0.000147000000000,0.097800000000000,0.000536000000000,-0.100000000000000,0.000077900000000,0.000748000000000,0.411000000000000,0.489000000000000,
162000.000000000000000,-0.000084700000000,-0.000076100000000,-0.000067800000000,-0.000000026600000,0.000000049700000,0.000070500000000,0.000123000000000,-0.000005270000000,-0.000147000000000,0.098000000000000,0.000537000000000,-0.100000000000000,0.000078900000000,0.000750000000000,0.412000000000000,0.489000000000000,
162000.000000000000000,-0.000084700000000,-0.000076200000000,-0.000067900000000,-0.000000026600000,0.000000053400000,0.000070500000000,0.000123000000000,-0.000005310000000,-0.000147000000000,0.098200000000000,0.000537000000000,-0.101000000000000,0.000080800000000,0.000754000000000,0.412000000000000,0.489000000000000,
162000.000000000000000,-0.000084800000000,-0.000076200000000,-0.000067900000000,-0.000000026300000,0.000000047100000,0.000070500000000,0.000123000000000,-0.000005340000000,-0.000147000000000,0.098300000000000,0.000538000000000,-0.101000000000000,0.000080200000000,0.000752000000000,0.412000000000000,0.490000000000000,
162000.000000000000000,-0.000084800000000,-0.000076200000000,-0.000067900000000,-0.000000026400000,0.000000043700000,0.000070500000000,0.000123000000000,-0.000005330000000,-0.000147000000000,0.098500000000000,0.000538000000000,-0.101000000000000,0.000078400000000,0.000752000000000,0.413000000000000,0.490000000000000,
162000.000000000000000,-0.000084800000000,-0.000076200000000,-0.000067900000000,-0.000000026300000,0.000000034500000,0.000070500000000,0.000123000000000,-0.000005300000000,-0.000147000000000,0.098600000000000,0.000537000000000,-0.101000000000000,0.000074200000000,0.000747000000000,0.413000000000000,0.490000000000000,
162000.000000000000000,-0.000084800000000,-0.000076200000000,-0.000067900000000,-0.000000026200000,0.000000025900000,0.000070500000000,0.000123000000000,-0.000005290000000,-0.000147000000000,0.098800000000000,0.000537000000000,-0.101000000000000,0.000071200000000,0.000742000000000,0.413000000000000,0.491000000000000,
162000.000000000000000,-0.000084800000000,-0.000076200000000,-0.000067800000000,-0.000000026000000,0.000000023600000,0.000070500000000,0.000123000000000,-0.000005280000000,-0.000147000000000,0.098900000000000,0.000537000000000,-0.101000000000000,0.000070200000000,0.000741000000000,0.413000000000000,0.491000000000000,
163000.000000000000000,-0.000084900000000,-0.000076200000000,-0.000067900000000,-0.000000026000000,0.000000022400000,0.000070600000000,0.000123000000000,-0.000005300000000,-0.000147000000000,0.099100000000000,0.000538000000000,-0.101000000000000,0.000069700000000,0.000741000000000,0.414000000000000,0.491000000000000,
163000.000000000000000,-0.000084900000000,-0.000076300000000,-0.000067900000000,-0.000000025800000,0.000000015900000,0.000070600000000,0.000123000000000,-0.000005320000000,-0.000147000000000,0.099300000000000,0.000538000000000,-0.102000000000000,0.000068100000000,0.000739000000000,0.414000000000000,0.492000000000000,
163000.000000000000000,-0.000084900000000,-0.000076300000000,-0.000067900000000,-0.000000025700000,0.000000009600000,0.000070600000000,0.000123000000000,-0.000005310000000,-0.000148000000000,0.099400000000000,0.000538000000000,-0.102000000000000,0.000066300000000,0.000737000000000,0.414000000000000,0.492000000000000,
163000.000000000000000,-0.000085000000000,-0.000076300000000,-0.000067900000000,-0.000000025900000,0.000000015800000,0.000070600000000,0.000123000000000,-0.000005340000000,-0.000148000000000,0.099600000000000,0.000538000000000,-0.102000000000000,0.000068500000000,0.000740000000000,0.414000000000000,0.493000000000000,
163000.000000000000000,-0.000085100000000,-0.000076400000000,-0.000068000000000,-0.000000026100000,0.000000024500000,0.000070600000000,0.000123000000000,-0.000005380000000,-0.000148000000000,0.099700000000000,0.000539000000000,-0.102000000000000,0.000071400000000,0.000744000000000,0.415000000000000,0.493000000000000,
163000.000000000000000,-0.000085100000000,-0.000076400000000,-0.000068000000000,-0.000000026100000,0.000000028100000,0.000070600000000,0.000123000000000,-0.000005400000000,-0.000148000000000,0.099900000000000,0.000539000000000,-0.102000000000000,0.000073200000000,0.000744000000000,0.415000000000000,0.493000000000000,
163000.000000000000000,-0.000085100000000,-0.000076400000000,-0.000068000000000,-0.000000026200000,0.000000034700000,0.000070600000000,0.000123000000000,-0.000005410000000,-0.000148000000000,0.100000000000000,0.000539000000000,-0.102000000000000,0.000074900000000,0.000747000000000,0.415000000000000,0.494000000000000,
163000.000000000000000,-0.000085200000000,-0.000076500000000,-0.000068100000000,-0.000000026400000,0.000000038300000,0.000070700000000,0.000123000000000,-0.000005440000000,-0.000148000000000,0.100000000000000,0.000539000000000,-0.103000000000000,0.000076000000000,0.000749000000000,0.416000000000000,0.494000000000000,
163000.000000000000000,-0.000085300000000,-0.000076500000000,-0.000068100000000,-0.000000026300000,0.000000039900000,0.000070700000000,0.000123000000000,-0.000005480000000,-0.000148000000000,0.100000000000000,0.000540000000000,-0.103000000000000,0.000078000000000,0.000749000000000,0.416000000000000,0.494000000000000,
163000.000000000000000,-0.000085300000000,-0.000076600000000,-0.000068200000000,-0.000000026500000,0.000000049600000,0.000070700000000,0.000123000000000,-0.000005540000000,-0.000148000000000,0.101000000000000,0.000540000000000,-0.103000000000000,0.000081900000000,0.000755000000000,0.416000000000000,0.495000000000000,
164000.000000000000000,-0.000085400000000,-0.000076700000000,-0.000068200000000,-0.000000026600000,0.000000052100000,0.000070700000000,0.000123000000000,-0.000005570000000,-0.000148000000000,0.101000000000000,0.000541000000000,-0.103000000000000,0.000083200000000,0.000756000000000,0.416000000000000,0.495000000000000,
164000.000000000000000,-0.000085400000000,-0.000076700000000,-0.000068200000000,-0.000000026300000,0.000000045800000,0.000070700000000,0.000123000000000,-0.000005580000000,-0.000148000000000,0.101000000000000,0.000541000000000,-0.103000000000000,0.000081900000000,0.000753000000000,0.417000000000000,0.495000000000000,
164000.000000000000000,-0.000085400000000,-0.000076700000000,-0.000068200000000,-0.000000026400000,0.000000047700000,0.000070700000000,0.000123000000000,-0.000005570000000,-0.000148000000000,0.101000000000000,0.000541000000000,-0.103000000000000,0.000081100000000,0.000753000000000,0.417000000000000,0.496000000000000,
164000.000000000000000,-0.000085500000000,-0.000076700000000,-0.000068200000000,-0.000000026800000,0.000000051600000,0.000070800000000,0.000123000000000,-0.000005560000000,-0.000148000000000,0.101000000000000,0.000541000000000,-0.104000000000000,0.000081300000000,0.000754000000000,0.417000000000000,0.496000000000000,
164000.000000000000000,-0.000085500000000,-0.000076800000000,-0.000068200000000,-0.000000026500000,0.000000047800000,0.000070800000000,0.000123000000000,-0.000005600000000,-0.000148000000000,0.101000000000000,0.000541000000000,-0.104000000000000,0.000081000000000,0.000752000000000,0.418000000000000,0.496000000000000,
164000.000000000000000,-0.000085500000000,-0.000076800000000,-0.000068300000000,-0.000000026600000,0.000000044200000,0.000070800000000,0.000124000000000,-0.000005590000000,-0.000148000000000,0.101000000000000,0.000541000000000,-0.104000000000000,0.000079800000000,0.000752000000000,0.418000000000000,0.497000000000000,
164000.000000000000000,-0.000085600000000,-0.000076800000000,-0.000068300000000,-0.000000026100000,0.000000034900000,0.000070800000000,0.000124000000000,-0.000005600000000,-0.000148000000000,0.102000000000000,0.000542000000000,-0.104000000000000,0.000077500000000,0.000750000000000,0.418000000000000,0.497000000000000,
164000.000000000000000,-0.000085600000000,-0.000076800000000,-0.000068300000000,-0.000000025800000,0.000000022400000,0.000070800000000,0.000124000000000,-0.000005600000000,-0.000148000000000,0.102000000000000,0.000542000000000,-0.104000000000000,0.000073900000000,0.000745000000000,0.418000000000000,0.498000000000000,
164000.000000000000000,-0.000085600000000,-0.000076800000000,-0.000068300000000,-0.000000025800000,0.000000023400000,0.000070800000000,0.000124000000000,-0.000005600000000,-0.000148000000000,0.102000000000000,0.000542000000000,-0.104000000000000,0.000073500000000,0.000746000000000,0.419000000000000,0.498000000000000,
164000.000000000000000,-0.000085700000000,-0.000076800000000,-0.000068300000000,-0.000000026000000,0.000000023400000,0.000070800000000,0.000124000000000,-0.000005600000000,-0.000148000000000,0.102000000000000,0.000542000000000,-0.105000000000000,0.000072800000000,0.000745000000000,0.419000000000000,0.498000000000000,
165000.000000000000000,-0.000085700000000,-0.000076800000000,-0.000068300000000,-0.000000025900000,0.000000019000000,0.000070900000000,0.000124000000000,-0.000005590000000,-0.000148000000000,0.102000000000000,0.000542000000000,-0.105000000000000,0.000070600000000,0.000741000000000,0.419000000000000,0.499000000000000,
165000.000000000000000,-0.000085700000000,-0.000076800000000,-0.000068300000000,-0.000000026000000,0.000000014600000,0.000070900000000,0.000124000000000,-0.000005570000000,-0.000148000000000,0.102000000000000,0.000542000000000,-0.105000000000000,0.000068700000000,0.000739000000000,0.420000000000000,0.499000000000000,
165000.000000000000000,-0.000085700000000,-0.000076900000000,-0.000068300000000,-0.000000025900000,0.000000013800000,0.000070900000000,0.000124000000000,-0.000005600000000,-0.000148000000000,0.103000000000000,0.000542000000000,-0.105000000000000,0.000069100000000,0.000740000000000,0.420000000000000,0.499000000000000,
165000.000000000000000,-0.000085800000000,-0.000077000000000,-0.000068400000000,-0.000000026000000,0.000000019800000,0.000070900000000,0.000124000000000,-0.000005670000000,-0.000149000000000,0.103000000000000,0.000543000000000,-0.105000000000000,0.000072300000000,0.000744000000000,0.420000000000000,0.500000000000000,
165000.000000000000000,-0.000085900000000,-0.000077000000000,-0.000068400000000,-0.000000026000000,0.000000027600000,0.000070900000000,0.000124000000000,-0.000005730000000,-0.000149000000000,0.103000000000000,0.000543000000000,-0.105000000000000,0.000076400000000,0.000749000000000,0.420000000000000,0.500000000000000,
165000.000000000000000,-0.000086000000000,-0.000077100000000,-0.000068500000000,-0.000000026300000,0.000000035200000,0.000070900000000,0.000124000000000,-0.000005740000000,-0.000149000000000,0.103000000000000,0.000543000000000,-0.105000000000000,0.000078700000000,0.000752000000000,0.421000000000000,0.500000000000000,
165000.000000000000000,-0.000086000000000,-0.000077100000000,-0.000068500000000,-0.000000026600000,0.000000038300000,0.000070900000000,0.000124000000000,-0.000005750000000,-0.000149000000000,0.103000000000000,0.000544000000000,-0.106000000000000,0.000078900000000,0.000752000000000,0.421000000000000,0.501000000000000,
165000.000000000000000,-0.000086000000000,-0.000077100000000,-0.000068500000000,-0.000000026200000,0.000000036700000,0.000071000000000,0.000124000000000,-0.000005770000000,-0.000149000000000,0.103000000000000,0.000544000000000,-0.106000000000000,0.000078600000000,0.000749000000000,0.421000000000000,0.501000000000000,
165000.000000000000000,-0.000086100000000,-0.000077100000000,-0.000068500000000,-0.000000026600000,0.000000045400000,0.000071000000000,0.000124000000000,-0.000005770000000,-0.000149000000000,0.104000000000000,0.000544000000000,-0.106000000000000,0.000081400000000,0.000753000000000,0.421000000000000,0.501000000000000,
165000.000000000000000,-0.000086200000000,-0.000077200000000,-0.000068600000000,-0.000000026600000,0.000000051800000,0.000071000000000,0.000124000000000,-0.000005840000000,-0.000149000000000,0.104000000000000,0.000545000000000,-0.106000000000000,0.000084700000000,0.000756000000000,0.422000000000000,0.502000000000000,
166000.000000000000000,-0.000086200000000,-0.000077300000000,-0.000068600000000,-0.000000026500000,0.000000049800000,0.000071000000000,0.000124000000000,-0.000005880000000,-0.000149000000000,0.104000000000000,0.000545000000000,-0.106000000000000,0.000085100000000,0.000757000000000,0.422000000000000,0.502000000000000,
166000.000000000000000,-0.000086300000000,-0.000077300000000,-0.000068700000000,-0.000000026400000,0.000000047400000,0.000071000000000,0.000124000000000,-0.000005900000000,-0.000149000000000,0.104000000000000,0.000546000000000,-0.106000000000000,0.000084400000000,0.000757000000000,0.422000000000000,0.503000000000000,
166000.000000000000000,-0.000086300000000,-0.000077300000000,-0.000068600000000,-0.000000026500000,0.000000044400000,0.000071000000000,0.000124000000000,-0.000005890000000,-0.000149000000000,0.104000000000000,0.000545000000000,-0.107000000000000,0.000083000000000,0.000756000000000,0.423000000000000,0.503000000000000,
166000.000000000000000,-0.000086300000000,-0.000077300000000,-0.000068600000000,-0.000000026300000,0.000000041000000,0.000071000000000,0.000124000000000,-0.000005880000000,-0.000149000000000,0.104000000000000,0.000546000000000,-0.107000000000000,0.000081900000000,0.000753000000000,0.423000000000000,0.503000000000000,
166000.000000000000000,-0.000086300000000,-0.000077400000000,-0.000068600000000,-0.000000026600000,0.000000044700000,0.000071100000000,0.000124000000000,-0.000005880000000,-0.000149000000000,0.104000000000000,0.000545000000000,-0.107000000000000,0.000082100000000,0.000754000000000,0.423000000000000,0.504000000000000,
166000.000000000000000,-0.000086300000000,-0.000077300000000,-0.000068600000000,-0.000000026600000,0.000000041300000,0.000071100000000,0.000124000000000,-0.000005860000000,-0.000149000000000,0.105000000000000,0.000546000000000,-0.107000000000000,0.000080300000000,0.000753000000000,0.423000000000000,0.504000000000000,
166000.000000000000000,-0.000086400000000,-0.000077400000000,-0.000068700000000,-0.000000026000000,0.000000027600000,0.000071100000000,0.000124000000000,-0.000005880000000,-0.000149000000000,0.105000000000000,0.000545000000000,-0.107000000000000,0.000076400000000,0.000747000000000,0.424000000000000,0.504000000000000,
166000.000000000000000,-0.000086400000000,-0.000077400000000,-0.000068600000000,-0.000000026100000,0.000000023700000,0.000071100000000,0.000124000000000,-0.000005870000000,-0.000149000000000,0.105000000000000,0.000546000000000,-0.107000000000000,0.000075200000000,0.000747000000000,0.424000000000000,0.505000000000000,
166000.000000000000000,-0.000086500000000,-0.000077500000000,-0.000068700000000,-0.000000025600000,0.000000019800000,0.000071100000000,0.000124000000000,-0.000005920000000,-0.000149000000000,0.105000000000000,0.000546000000000,-0.108000000000000,0.000074600000000,0.000747000000000,0.424000000000000,0.505000000000000,
166000.000000000000000,-0.000086500000000,-0.000077400000000,-0.000068700000000,-0.000000026000000,0.000000019200000,0.000071100000000,0.000124000000000,-0.000005900000000,-0.000149000000000,0.105000000000000,0.000546000000000,-0.108000000000000,0.000074600000000,0.000747000000000,0.425000000000000,0.505000000000000,
167000.000000000000000,-0.000086500000000,-0.000077500000000,-0.000068700000000,-0.000000025700000,0.000000018700000,0.000071100000000,0.000124000000000,-0.000005940000000,-0.000149000000000,0.105000000000000,0.000546000000000,-0.108000000000000,0.000073900000000,0.000746000000000,0.425000000000000,0.506000000000000,
167000.000000000000000,-0.000086500000000,-0.000077500000000,-0.000068700000000,-0.000000026000000,0.000000018500000,0.000071200000000,0.000124000000000,-0.000005890000000,-0.000149000000000,0.106000000000000,0.000546000000000,-0.108000000000000,0.000072800000000,0.000744000000000,0.425000000000000,0.506000000000000,
167000.000000000000000,-0.000086600000000,-0.000077500000000,-0.000068700000000,-0.000000025600000,0.000000016500000,0.000071200000000,0.000124000000000,-0.000005950000000,-0.000149000000000,0.106000000000000,0.000547000000000,-0.108000000000000,0.000072600000000,0.000743000000000,0.425000000000000,0.506000000000000,
167000.000000000000000,-0.000086600000000,-0.000077500000000,-0.000068700000000,-0.000000026500000,0.000000026500000,0.000071200000000,0.000124000000000,-0.000005940000000,-0.000149000000000,0.106000000000000,0.000547000000000,-0.108000000000000,0.000075900000000,0.000748000000000,0.426000000000000,0.507000000000000,
167000.000000000000000,-0.000086800000000,-0.000077700000000,-0.000068900000000,-0.000000025900000,0.000000031300000,0.000071200000000,0.000124000000000,-0.000006050000000,-0.000150000000000,0.106000000000000,0.000548000000000,-0.109000000000000,0.000079500000000,0.000751000000000,0.426000000000000,0.507000000000000,
167000.000000000000000,-0.000086800000000,-0.000077700000000,-0.000068900000000,-0.000000026500000,0.000000035900000,0.000071200000000,0.000124000000000,-0.000006050000000,-0.000150000000000,0.106000000000000,0.000548000000000,-0.109000000000000,0.000081700000000,0.000755000000000,0.426000000000000,0.508000000000000,
167000.000000000000000,-0.000086900000000,-0.000077800000000,-0.000068900000000,-0.000000026000000,0.000000035800000,0.000071200000000,0.000124000000000,-0.000006100000000,-0.000150000000000,0.106000000000000,0.000548000000000,-0.109000000000000,0.000082400000000,0.000755000000000,0.426000000000000,0.508000000000000,
167000.000000000000000,-0.000086900000000,-0.000077800000000,-0.000068900000000,-0.000000026600000,0.000000041800000,0.000071200000000,0.000124000000000,-0.000006090000000,-0.000150000000000,0.107000000000000,0.000548000000000,-0.109000000000000,0.000083700000000,0.000757000000000,0.427000000000000,0.508000000000000,
167000.000000000000000,-0.000086900000000,-0.000077800000000,-0.000069000000000,-0.000000026200000,0.000000044900000,0.000071300000000,0.000124000000000,-0.000006120000000,-0.000150000000000,0.107000000000000,0.000549000000000,-0.109000000000000,0.000084800000000,0.000757000000000,0.427000000000000,0.509000000000000,
167000.000000000000000,-0.000086900000000,-0.000077800000000,-0.000068900000000,-0.000000027100000,0.000000049800000,0.000071300000000,0.000124000000000,-0.000006100000000,-0.000150000000000,0.107000000000000,0.000549000000000,-0.109000000000000,0.000085400000000,0.000758000000000,0.427000000000000,0.509000000000000,
168000.000000000000000,-0.000087400000000,-0.000078200000000,-0.000069400000000,-0.000000024000000,0.000000065400000,0.000071300000000,0.000124000000000,-0.000006510000000,-0.000150000000000,0.107000000000000,0.000554000000000,-0.110000000000000,0.000091300000000,0.000767000000000,0.428000000000000,0.510000000000000,
168000.000000000000000,-0.000086800000000,-0.000077700000000,-0.000068800000000,-0.000000024700000,0.000000026900000,0.000071000000000,0.000124000000000,-0.000006200000000,-0.000149000000000,0.107000000000000,0.000547000000000,-0.110000000000000,0.000077000000000,0.000754000000000,0.428000000000000,0.510000000000000,
168000.000000000000000,-0.000086800000000,-0.000077700000000,-0.000068800000000,-0.000000024200000,-0.000000037300000,0.000071300000000,0.000125000000000,-0.000005900000000,-0.000150000000000,0.108000000000000,0.000547000000000,-0.110000000000000,0.000062800000000,0.000718000000000,0.428000000000000,0.510000000000000,
168000.000000000000000,-0.000086800000000,-0.000077600000000,-0.000068700000000,-0.000000023900000,-0.000000011900000,0.000071200000000,0.000124000000000,-0.000005960000000,-0.000149000000000,0.108000000000000,0.000547000000000,-0.110000000000000,0.000068000000000,0.000719000000000,0.428000000000000,0.510000000000000,
168000.000000000000000,-0.000087100000000,-0.000077900000000,-0.000069000000000,-0.000000031400000,0.000000117000000,0.000071400000000,0.000125000000000,-0.000006090000000,-0.000150000000000,0.108000000000000,0.000549000000000,-0.110000000000000,0.000090400000000,0.000778000000000,0.429000000000000,0.511000000000000,
168000.000000000000000,-0.000086900000000,-0.000077700000000,-0.000068700000000,-0.000000030100000,0.000000053500000,0.000071300000000,0.000125000000000,-0.000005880000000,-0.000150000000000,0.108000000000000,0.000547000000000,-0.110000000000000,0.000068800000000,0.000747000000000,0.429000000000000,0.511000000000000,
168000.000000000000000,-0.000086900000000,-0.000077700000000,-0.000068800000000,-0.000000028100000,0.000000012000000,0.000071400000000,0.000125000000000,-0.000005920000000,-0.000150000000000,0.108000000000000,0.000548000000000,-0.110000000000000,0.000055800000000,0.000737000000000,0.429000000000000,0.511000000000000,
168000.000000000000000,-0.000087100000000,-0.000077900000000,-0.000068900000000,-0.000000027500000,0.000000012100000,0.000071400000000,0.000125000000000,-0.000006050000000,-0.000150000000000,0.108000000000000,0.000548000000000,-0.111000000000000,0.000062700000000,0.000744000000000,0.429000000000000,0.512000000000000,
168000.000000000000000,-0.000087200000000,-0.000078000000000,-0.000069100000000,-0.000000023000000,-0.000000034600000,0.000071400000000,0.000125000000000,-0.000006180000000,-0.000150000000000,0.108000000000000,0.000550000000000,-0.111000000000000,0.000067100000000,0.000718000000000,0.430000000000000,0.512000000000000,
168000.000000000000000,-0.000087300000000,-0.000078100000000,-0.000069100000000,-0.000000025700000,0.000000026700000,0.000071400000000,0.000125000000000,-0.000006250000000,-0.000150000000000,0.108000000000000,0.000551000000000,-0.111000000000000,0.000081100000000,0.000746000000000,0.430000000000000,0.512000000000000,
169000.000000000000000,-0.000087100000000,-0.000077900000000,-0.000068900000000,-0.000000028900000,0.000000063700000,0.000071400000000,0.000125000000000,-0.000006020000000,-0.000150000000000,0.109000000000000,0.000549000000000,-0.111000000000000,0.000077500000000,0.000762000000000,0.430000000000000,0.513000000000000,
169000.000000000000000,-0.000087000000000,-0.000077700000000,-0.000068700000000,-0.000000026900000,-0.000000002640000,0.000071400000000,0.000125000000000,-0.000005820000000,-0.000150000000000,0.109000000000000,0.000547000000000,-0.111000000000000,0.000053300000000,0.000725000000000,0.431000000000000,0.513000000000000,
169000.000000000000000,-0.000087100000000,-0.000077800000000,-0.000068800000000,-0.000000028000000,0.000000021600000,0.000071500000000,0.000125000000000,-0.000005890000000,-0.000150000000000,0.109000000000000,0.000548000000000,-0.111000000000000,0.000061000000000,0.000739000000000,0.431000000000000,0.513000000000000,
169000.000000000000000,-0.000087400000000,-0.000078100000000,-0.000069100000000,-0.000000026400000,0.000000037900000,0.000071500000000,0.000125000000000,-0.000006180000000,-0.000150000000000,0.109000000000000,0.000551000000000,-0.112000000000000,0.000078200000000,0.000752000000000,0.431000000000000,0.514000000000000,
169000.000000000000000,-0.000087600000000,-0.000078300000000,-0.000069300000000,-0.000000023400000,0.000000000704000,0.000071500000000,0.000125000000000,-0.000006360000000,-0.000151000000000,0.109000000000000,0.000552000000000,-0.112000000000000,0.000077900000000,0.000736000000000,0.431000000000000,0.514000000000000,
169000.000000000000000,-0.000087500000000,-0.000078200000000,-0.000069200000000,-0.000000025200000,0.000000003270000,0.000071500000000,0.000125000000000,-0.000006240000000,-0.000150000000000,0.109000000000000,0.000551000000000,-0.112000000000000,0.000071500000000,0.000738000000000,0.432000000000000,0.515000000000000,
169000.000000000000000,-0.000087300000000,-0.000078000000000,-0.000069000000000,-0.000000026500000,-0.000000004220000,0.000071500000000,0.000125000000000,-0.000006030000000,-0.000150000000000,0.110000000000000,0.000549000000000,-0.112000000000000,0.000059000000000,0.000731000000000,0.432000000000000,0.515000000000000,
169000.000000000000000,-0.000087400000000,-0.000078100000000,-0.000069000000000,-0.000000027100000,0.000000026800000,0.000071500000000,0.000125000000000,-0.000006060000000,-0.000150000000000,0.110000000000000,0.000550000000000,-0.112000000000000,0.000067000000000,0.000740000000000,0.432000000000000,0.515000000000000,
169000.000000000000000,-0.000087500000000,-0.000078200000000,-0.000069100000000,-0.000000028900000,0.000000082000000,0.000071500000000,0.000125000000000,-0.000006210000000,-0.000150000000000,0.110000000000000,0.000551000000000,-0.112000000000000,0.000087300000000,0.000764000000000,0.432000000000000,0.516000000000000,
169000.000000000000000,-0.000087700000000,-0.000078400000000,-0.000069300000000,-0.000000027300000,0.000000066400000,0.000071600000000,0.000125000000000,-0.000006370000000,-0.000151000000000,0.110000000000000,0.000553000000000,-0.113000000000000,0.000090200000000,0.000758000000000,0.433000000000000,0.516000000000000,
170000.000000000000000,-0.000087700000000,-0.000078400000000,-0.000069300000000,-0.000000026200000,0.000000026100000,0.000071600000000,0.000125000000000,-0.000006330000000,-0.000151000000000,0.110000000000000,0.000552000000000,-0.113000000000000,0.000078300000000,0.000747000000000,0.433000000000000,0.516000000000000,
170000.000000000000000,-0.000087700000000,-0.000078300000000,-0.000069200000000,-0.000000024800000,-0.000000018100000,0.000071600000000,0.000125000000000,-0.000006270000000,-0.000151000000000,0.110000000000000,0.000552000000000,-0.113000000000000,0.000062900000000,0.000731000000000,0.433000000000000,0.517000000000000,
170000.000000000000000,-0.000087700000000,-0.000078300000000,-0.000069200000000,-0.000000025700000,-0.000000000648000,0.000071600000000,0.000125000000000,-0.000006260000000,-0.000151000000000,0.111000000000000,0.000552000000000,-0.113000000000000,0.000066300000000,0.000736000000000,0.434000000000000,0.517000000000000,
170000.000000000000000,-0.000087800000000,-0.000078400000000,-0.000069300000000,-0.000000028700000,0.000000067100000,0.000071600000000,0.000125000000000,-0.000006340000000,-0.000151000000000,0.111000000000000,0.000553000000000,-0.113000000000000,0.000084000000000,0.000762000000000,0.434000000000000,0.517000000000000,
170000.000000000000000,-0.000087800000000,-0.000078400000000,-0.000069300000000,-0.000000027700000,0.000000050100000,0.000071600000000,0.000125000000000,-0.000006300000000,-0.000151000000000,0.111000000000000,0.000552000000000,-0.113000000000000,0.000079400000000,0.000747000000000,0.434000000000000,0.518000000000000,
170000.000000000000000,-0.000087700000000,-0.000078300000000,-0.000069200000000,-0.000000025500000,-0.000000001690000,0.000071600000000,0.000125000000000,-0.000006200000000,-0.000151000000000,0.111000000000000,0.000552000000000,-0.114000000000000,0.000062400000000,0.000725000000000,0.434000000000000,0.518000000000000,
170000.000000000000000,-0.000087700000000,-0.000078300000000,-0.000069100000000,-0.000000025800000,-0.000000019400000,0.000071700000000,0.000125000000000,-0.000006140000000,-0.000151000000000,0.111000000000000,0.000551000000000,-0.114000000000000,0.000053900000000,0.000725000000000,0.435000000000000,0.518000000000000,
170000.000000000000000,-0.000087900000000,-0.000078400000000,-0.000069300000000,-0.000000024800000,-0.000000029500000,0.000071700000000,0.000125000000000,-0.000006280000000,-0.000151000000000,0.111000000000000,0.000552000000000,-0.114000000000000,0.000058600000000,0.000725000000000,0.435000000000000,0.519000000000000,
170000.000000000000000,-0.000088100000000,-0.000078600000000,-0.000069500000000,-0.000000026400000,0.000000034900000,0.000071700000000,0.000125000000000,-0.000006490000000,-0.000151000000000,0.112000000000000,0.000554000000000,-0.114000000000000,0.000082500000000,0.000758000000000,0.435000000000000,0.519000000000000,
170000.000000000000000,-0.000088100000000,-0.000078600000000,-0.000069500000000,-0.000000027900000,0.000000071800000,0.000071700000000,0.000125000000000,-0.000006470000000,-0.000151000000000,0.112000000000000,0.000554000000000,-0.114000000000000,0.000089900000000,0.000772000000000,0.435000000000000,0.519000000000000,
171000.000000000000000,-0.000087900000000,-0.000078500000000,-0.000069300000000,-0.000000026300000,0.000000016600000,0.000071700000000,0.000125000000000,-0.000006290000000,-0.000151000000000,0.112000000000000,0.000553000000000,-0.114000000000000,0.000069000000000,0.000738000000000,0.436000000000000,0.520000000000000,
171000.000000000000000,-0.000087800000000,-0.000078400000000,-0.000069100000000,-0.000000026000000,-0.000000016000000,0.000071700000000,0.000125000000000,-0.000006150000000,-0.000151000000000,0.112000000000000,0.000551000000000,-0.115000000000000,0.000053900000000,0.000719000000000,0.436000000000000,0.520000000000000,
171000.000000000000000,-0.000088200000000,-0.000078700000000,-0.000069500000000,-0.000000027000000,0.000000017900000,0.000071600000000,0.000125000000000,-0.000006630000000,-0.000151000000000,0.112000000000000,0.000555000000000,-0.115000000000000,0.000068800000000,0.000738000000000,0.436000000000000,0.521000000000000,
171000.000000000000000,-0.000088400000000,-0.000078900000000,-0.000069700000000,-0.000000026000000,0.000000027700000,0.000071800000000,0.000125000000000,-0.000006710000000,-0.000151000000000,0.112000000000000,0.000557000000000,-0.115000000000000,0.000081700000000,0.000746000000000,0.437000000000000,0.521000000000000,
171000.000000000000000,-0.000088300000000,-0.000078800000000,-0.000069600000000,-0.000000026600000,0.000000041400000,0.000071700000000,0.000125000000000,-0.000006590000000,-0.000151000000000,0.113000000000000,0.000556000000000,-0.115000000000000,0.000086600000000,0.000756000000000,0.437000000000000,0.521000000000000,
171000.000000000000000,-0.000088300000000,-0.000078800000000,-0.000069500000000,-0.000000026600000,0.000000029600000,0.000071800000000,0.000125000000000,-0.000006520000000,-0.000151000000000,0.113000000000000,0.000555000000000,-0.115000000000000,0.000077300000000,0.000751000000000,0.437000000000000,0.522000000000000,
171000.000000000000000,-0.000088200000000,-0.000078700000000,-0.000069400000000,-0.000000026000000,0.000000002700000,0.000071800000000,0.000125000000000,-0.000006400000000,-0.000151000000000,0.113000000000000,0.000554000000000,-0.115000000000000,0.000065100000000,0.000732000000000,0.437000000000000,0.522000000000000,
171000.000000000000000,-0.000088200000000,-0.000078700000000,-0.000069400000000,-0.000000027400000,0.000000027300000,0.000071800000000,0.000125000000000,-0.000006410000000,-0.000151000000000,0.113000000000000,0.000554000000000,-0.115000000000000,0.000070300000000,0.000738000000000,0.438000000000000,0.522000000000000,
171000.000000000000000,-0.000088300000000,-0.000078800000000,-0.000069500000000,-0.000000027700000,0.000000056500000,0.000071800000000,0.000125000000000,-0.000006480000000,-0.000151000000000,0.113000000000000,0.000555000000000,-0.116000000000000,0.000083800000000,0.000751000000000,0.438000000000000,0.523000000000000,
171000.000000000000000,-0.000088500000000,-0.000079000000000,-0.000069700000000,-0.000000027200000,0.000000051900000,0.000071800000000,0.000126000000000,-0.000006640000000,-0.000152000000000,0.113000000000000,0.000557000000000,-0.116000000000000,0.000086000000000,0.000755000000000,0.438000000000000,0.523000000000000,
172000.000000000000000,-0.000088500000000,-0.000078900000000,-0.000069700000000,-0.000000026100000,0.000000020800000,0.000071900000000,0.000126000000000,-0.000006600000000,-0.000152000000000,0.114000000000000,0.000556000000000,-0.116000000000000,0.000076500000000,0.000748000000000,0.438000000000000,0.523000000000000,
172000.000000000000000,-0.000088400000000,-0.000078900000000,-0.000069600000000,-0.000000025600000,0.000000001450000,0.000071900000000,0.000126000000000,-0.000006510000000,-0.000151000000000,0.114000000000000,0.000555000000000,-0.116000000000000,0.000069100000000,0.000743000000000,0.439000000000000,0.524000000000000,
172000.000000000000000,-0.000088500000000,-0.000078900000000,-0.000069600000000,-0.000000026400000,0.000000020500000,0.000071900000000,0.000126000000000,-0.000006570000000,-0.000152000000000,0.114000000000000,0.000556000000000,-0.116000000000000,0.000073700000000,0.000747000000000,0.439000000000000,0.524000000000000,
172000.000000000000000,-0.000088600000000,-0.000079000000000,-0.000069600000000,-0.000000027400000,0.000000043200000,0.000071900000000,0.000126000000000,-0.000006580000000,-0.000152000000000,0.114000000000000,0.000556000000000,-0.116000000000000,0.000080300000000,0.000749000000000,0.439000000000000,0.524000000000000,
172000.000000000000000,-0.000088600000000,-0.000079000000000,-0.000069600000000,-0.000000026600000,0.000000031800000,0.000071900000000,0.000126000000000,-0.000006560000000,-0.000152000000000,0.114000000000000,0.000556000000000,-0.117000000000000,0.000076200000000,0.000740000000000,0.439000000000000,0.525000000000000,
172000.000000000000000,-0.000088500000000,-0.000078900000000,-0.000069600000000,-0.000000026800000,0.000000010000000,0.000071900000000,0.000126000000000,-0.000006480000000,-0.000152000000000,0.114000000000000,0.000556000000000,-0.117000000000000,0.000065100000000,0.000734000000000,0.440000000000000,0.525000000000000,
172000.000000000000000,-0.000088600000000,-0.000079000000000,-0.000069600000000,-0.000000025500000,-0.000000017100000,0.000071900000000,0.000126000000000,-0.000006540000000,-0.000152000000000,0.115000000000000,0.000556000000000,-0.117000000000000,0.000059900000000,0.000728000000000,0.440000000000000,0.525000000000000,
172000.000000000000000,-0.000088800000000,-0.000079100000000,-0.000069800000000,-0.000000025800000,-0.000000001440000,0.000072000000000,0.000126000000000,-0.000006670000000,-0.000152000000000,0.115000000000000,0.000557000000000,-0.117000000000000,0.000069600000000,0.000740000000000,0.440000000000000,0.526000000000000,
172000.000000000000000,-0.000088900000000,-0.000079200000000,-0.000069900000000,-0.000000027200000,0.000000045600000,0.000072000000000,0.000126000000000,-0.000006790000000,-0.000152000000000,0.115000000000000,0.000559000000000,-0.117000000000000,0.000085700000000,0.000761000000000,0.441000000000000,0.526000000000000,
172000.000000000000000,-0.000088900000000,-0.000079200000000,-0.000069800000000,-0.000000026900000,0.000000040900000,0.000072000000000,0.000126000000000,-0.000006750000000,-0.000152000000000,0.115000000000000,0.000558000000000,-0.117000000000000,0.000083000000000,0.000751000000000,0.441000000000000,0.526000000000000,
173000.000000000000000,-0.000088800000000,-0.000079100000000,-0.000069700000000,-0.000000026500000,0.000000011900000,0.000072000000000,0.000126000000000,-0.000006580000000,-0.000152000000000,0.115000000000000,0.000557000000000,-0.118000000000000,0.000068300000000,0.000732000000000,0.441000000000000,0.527000000000000,
173000.000000000000000,-0.000088700000000,-0.000079100000000,-0.000069600000000,-0.000000027100000,0.000000015100000,0.000072000000000,0.000126000000000,-0.000006550000000,-0.000152000000000,0.115000000000000,0.000557000000000,-0.118000000000000,0.000065800000000,0.000735000000000,0.441000000000000,0.527000000000000,
173000.000000000000000,-0.000088900000000,-0.000079200000000,-0.000069800000000,-0.000000026500000,0.000000024300000,0.000072000000000,0.000126000000000,-0.000006700000000,-0.000152000000000,0.115000000000000,0.000558000000000,-0.118000000000000,0.000075400000000,0.000744000000000,0.442000000000000,0.527000000000000,
173000.000000000000000,-0.000089100000000,-0.000079400000000,-0.000070000000000,-0.000000027100000,0.000000050400000,0.000072000000000,0.000126000000000,-0.000006900000000,-0.000152000000000,0.116000000000000,0.000560000000000,-0.118000000000000,0.000090100000000,0.000761000000000,0.442000000000000,0.528000000000000,
173000.000000000000000,-0.000089200000000,-0.000079500000000,-0.000070100000000,-0.000000027400000,0.000000056500000,0.000072100000000,0.000126000000000,-0.000006940000000,-0.000152000000000,0.116000000000000,0.000560000000000,-0.118000000000000,0.000092400000000,0.000766000000000,0.442000000000000,0.528000000000000,
173000.000000000000000,-0.000089100000000,-0.000079400000000,-0.000069900000000,-0.000000026300000,0.000000018800000,0.000072100000000,0.000126000000000,-0.000006790000000,-0.000152000000000,0.116000000000000,0.000559000000000,-0.119000000000000,0.000075800000000,0.000745000000000,0.442000000000000,0.529000000000000,
173000.000000000000000,-0.000089000000000,-0.000079300000000,-0.000069800000000,-0.000000026200000,0.000000000790000,0.000072100000000,0.000126000000000,-0.000006670000000,-0.000152000000000,0.116000000000000,0.000558000000000,-0.119000000000000,0.000064800000000,0.000730000000000,0.443000000000000,0.529000000000000,
173000.000000000000000,-0.000089100000000,-0.000079300000000,-0.000069800000000,-0.000000027000000,0.000000025800000,0.000072100000000,0.000126000000000,-0.000006710000000,-0.000152000000000,0.116000000000000,0.000559000000000,-0.119000000000000,0.000072300000000,0.000739000000000,0.443000000000000,0.529000000000000,
173000.000000000000000,-0.000089200000000,-0.000079500000000,-0.000070000000000,-0.000000027600000,0.000000052500000,0.000072100000000,0.000126000000000,-0.000006860000000,-0.000152000000000,0.116000000000000,0.000560000000000,-0.119000000000000,0.000085100000000,0.000753000000000,0.443000000000000,0.530000000000000,
173000.000000000000000,-0.000089400000000,-0.000079600000000,-0.000070100000000,-0.000000027300000,0.000000048400000,0.000072100000000,0.000126000000000,-0.000006950000000,-0.000152000000000,0.117000000000000,0.000561000000000,-0.119000000000000,0.000087700000000,0.000758000000000,0.444000000000000,0.530000000000000,
174000.000000000000000,-0.000089300000000,-0.000079500000000,-0.000070000000000,-0.000000026100000,0.000000013900000,0.000072100000000,0.000126000000000,-0.000006890000000,-0.000152000000000,0.117000000000000,0.000560000000000,-0.119000000000000,0.000076400000000,0.000747000000000,0.444000000000000,0.530000000000000,
174000.000000000000000,-0.000089300000000,-0.000079500000000,-0.000070000000000,-0.000000026000000,0.000000000144000,0.000072200000000,0.000126000000000,-0.000006820000000,-0.000152000000000,0.117000000000000,0.000560000000000,-0.120000000000000,0.000069000000000,0.000741000000000,0.444000000000000,0.531000000000000,
174000.000000000000000,-0.000089300000000,-0.000079500000000,-0.000070000000000,-0.000000026600000,0.000000014700000,0.000072200000000,0.000126000000000,-0.000006830000000,-0.000152000000000,0.117000000000000,0.000560000000000,-0.120000000000000,0.000072600000000,0.000741000000000,0.444000000000000,0.531000000000000,
174000.000000000000000,-0.000089400000000,-0.000079600000000,-0.000070000000000,-0.000000027000000,0.000000039500000,0.000072200000000,0.000126000000000,-0.000006870000000,-0.000153000000000,0.117000000000000,0.000561000000000,-0.120000000000000,0.000080700000000,0.000747000000000,0.445000000000000,0.531000000000000,
174000.000000000000000,-0.000089400000000,-0.000079600000000,-0.000070000000000,-0.000000027700000,0.000000047500000,0.000072200000000,0.000126000000000,-0.000006870000000,-0.000153000000000,0.117000000000000,0.000561000000000,-0.120000000000000,0.000081700000000,0.000751000000000,0.445000000000000,0.532000000000000,
174000.000000000000000,-0.000089400000000,-0.000079600000000,-0.000070000000000,-0.000000026500000,0.000000010000000,0.000072200000000,0.000126000000000,-0.000006850000000,-0.000153000000000,0.118000000000000,0.000560000000000,-0.120000000000000,0.000069900000000,0.000739000000000,0.445000000000000,0.532000000000000,
174000.000000000000000,-0.000089500000000,-0.000079600000000,-0.000070000000000,-0.000000025400000,-0.000000018600000,0.000072200000000,0.000126000000000,-0.000006870000000,-0.000153000000000,0.118000000000000,0.000561000000000,-0.120000000000000,0.000063100000000,0.000731000000000,0.445000000000000,0.532000000000000,
174000.000000000000000,-0.000089600000000,-0.000079700000000,-0.000070200000000,-0.000000026200000,0.000000008230000,0.000072300000000,0.000126000000000,-0.000006970000000,-0.000153000000000,0.118000000000000,0.000562000000000,-0.121000000000000,0.000073800000000,0.000746000000000,0.446000000000000,0.533000000000000,
174000.000000000000000,-0.000089700000000,-0.000079800000000,-0.000070200000000,-0.000000026800000,0.000000033900000,0.000072300000000,0.000126000000000,-0.000007060000000,-0.000153000000000,0.118000000000000,0.000562000000000,-0.121000000000000,0.000083400000000,0.000753000000000,0.446000000000000,0.533000000000000,
174000.000000000000000,-0.000089700000000,-0.000079800000000,-0.000070200000000,-0.000000027000000,0.000000038300000,0.000072300000000,0.000126000000000,-0.000007020000000,-0.000153000000000,0.118000000000000,0.000562000000000,-0.121000000000000,0.000082500000000,0.000749000000000,0.446000000000000,0.533000000000000,
175000.000000000000000,-0.000089600000000,-0.000079700000000,-0.000070100000000,-0.000000027400000,0.000000027300000,0.000072300000000,0.000126000000000,-0.000006890000000,-0.000153000000000,0.118000000000000,0.000561000000000,-0.121000000000000,0.000073200000000,0.000741000000000,0.446000000000000,0.534000000000000,
175000.000000000000000,-0.000089600000000,-0.000079700000000,-0.000070100000000,-0.000000026600000,0.000000010600000,0.000072300000000,0.000126000000000,-0.000006890000000,-0.000153000000000,0.119000000000000,0.000561000000000,-0.121000000000000,0.000068500000000,0.000737000000000,0.447000000000000,0.534000000000000,
175000.000000000000000,-0.000089800000000,-0.000079900000000,-0.000070300000000,-0.000000026600000,0.000000022200000,0.000072300000000,0.000126000000000,-0.000007050000000,-0.000153000000000,0.119000000000000,0.000563000000000,-0.121000000000000,0.000078700000000,0.000747000000000,0.447000000000000,0.534000000000000,
175000.000000000000000,-0.000090000000000,-0.000080100000000,-0.000070400000000,-0.000000027300000,0.000000051600000,0.000072300000000,0.000126000000000,-0.000007220000000,-0.000153000000000,0.119000000000000,0.000564000000000,-0.122000000000000,0.000092800000000,0.000765000000000,0.447000000000000,0.535000000000000,
175000.000000000000000,-0.000090000000000,-0.000080100000000,-0.000070400000000,-0.000000027300000,0.000000052700000,0.000072400000000,0.000126000000000,-0.000007230000000,-0.000153000000000,0.119000000000000,0.000564000000000,-0.122000000000000,0.000092800000000,0.000764000000000,0.448000000000000,0.535000000000000,
175000.000000000000000,-0.000089900000000,-0.000080000000000,-0.000070300000000,-0.000000026700000,0.000000024400000,0.000072400000000,0.000126000000000,-0.000007070000000,-0.000153000000000,0.119000000000000,0.000563000000000,-0.122000000000000,0.000078000000000,0.000746000000000,0.448000000000000,0.536000000000000,
175000.000000000000000,-0.000089800000000,-0.000079900000000,-0.000070200000000,-0.000000026700000,0.000000010600000,0.000072400000000,0.000127000000000,-0.000006950000000,-0.000153000000000,0.119000000000000,0.000562000000000,-0.122000000000000,0.000068100000000,0.000734000000000,0.448000000000000,0.536000000000000,
175000.000000000000000,-0.000089900000000,-0.000079900000000,-0.000070300000000,-0.000000027200000,0.000000027000000,0.000072400000000,0.000127000000000,-0.000007020000000,-0.000153000000000,0.120000000000000,0.000563000000000,-0.122000000000000,0.000074700000000,0.000742000000000,0.448000000000000,0.536000000000000,
175000.000000000000000,-0.000090100000000,-0.000080100000000,-0.000070400000000,-0.000000027400000,0.000000042200000,0.000072400000000,0.000127000000000,-0.000007180000000,-0.000153000000000,0.120000000000000,0.000564000000000,-0.122000000000000,0.000085300000000,0.000753000000000,0.449000000000000,0.537000000000000,
175000.000000000000000,-0.000090200000000,-0.000080200000000,-0.000070500000000,-0.000000026800000,0.000000035800000,0.000072400000000,0.000127000000000,-0.000007260000000,-0.000153000000000,0.120000000000000,0.000565000000000,-0.123000000000000,0.000087100000000,0.000756000000000,0.449000000000000,0.537000000000000,
176000.000000000000000,-0.000090200000000,-0.000080200000000,-0.000070500000000,-0.000000026300000,0.000000015100000,0.000072400000000,0.000127000000000,-0.000007210000000,-0.000153000000000,0.120000000000000,0.000565000000000,-0.123000000000000,0.000078300000000,0.000750000000000,0.449000000000000,0.537000000000000,
176000.000000000000000,-0.000090100000000,-0.000080100000000,-0.000070300000000,-0.000000026100000,-0.000000002030000,0.000072500000000,0.000127000000000,-0.000007100000000,-0.000153000000000,0.120000000000000,0.000564000000000,-0.123000000000000,0.000068600000000,0.000738000000000,0.449000000000000,0.538000000000000,
176000.000000000000000,-0.000090100000000,-0.000080100000000,-0.000070300000000,-0.000000026600000,0.000000014800000,0.000072500000000,0.000127000000000,-0.000007100000000,-0.000153000000000,0.120000000000000,0.000564000000000,-0.123000000000000,0.000072900000000,0.000740000000000,0.450000000000000,0.538000000000000,
176000.000000000000000,-0.000090200000000,-0.000080200000000,-0.000070400000000,-0.000000027700000,0.000000045500000,0.000072500000000,0.000127000000000,-0.000007160000000,-0.000153000000000,0.121000000000000,0.000565000000000,-0.123000000000000,0.000082800000000,0.000751000000000,0.450000000000000,0.538000000000000,
176000.000000000000000,-0.000090300000000,-0.000080200000000,-0.000070500000000,-0.000000027400000,0.000000040900000,0.000072500000000,0.000127000000000,-0.000007220000000,-0.000154000000000,0.121000000000000,0.000565000000000,-0.123000000000000,0.000083400000000,0.000752000000000,0.450000000000000,0.539000000000000,
176000.000000000000000,-0.000090300000000,-0.000080300000000,-0.000070500000000,-0.000000026100000,0.000000006820000,0.000072500000000,0.000127000000000,-0.000007220000000,-0.000154000000000,0.121000000000000,0.000565000000000,-0.124000000000000,0.000074300000000,0.000743000000000,0.450000000000000,0.539000000000000,
176000.000000000000000,-0.000090300000000,-0.000080300000000,-0.000070500000000,-0.000000025900000,-0.000000004940000,0.000072500000000,0.000127000000000,-0.000007220000000,-0.000154000000000,0.121000000000000,0.000565000000000,-0.124000000000000,0.000070200000000,0.000742000000000,0.451000000000000,0.539000000000000,
176000.000000000000000,-0.000090400000000,-0.000080400000000,-0.000070600000000,-0.000000026400000,0.000000011700000,0.000072500000000,0.000127000000000,-0.000007280000000,-0.000154000000000,0.121000000000000,0.000566000000000,-0.124000000000000,0.000076500000000,0.000747000000000,0.451000000000000,0.540000000000000,
176000.000000000000000,-0.000090500000000,-0.000080400000000,-0.000070600000000,-0.000000027000000,0.000000034500000,0.000072600000000,0.000127000000000,-0.000007320000000,-0.000154000000000,0.122000000000000,0.000566000000000,-0.124000000000000,0.000083900000000,0.000751000000000,0.451000000000000,0.540000000000000,
176000.000000000000000,-0.000090500000000,-0.000080400000000,-0.000070600000000,-0.000000027700000,0.000000042800000,0.000072600000000,0.000127000000000,-0.000007280000000,-0.000154000000000,0.122000000000000,0.000566000000000,-0.124000000000000,0.000083100000000,0.000749000000000,0.452000000000000,0.540000000000000,
177000.000000000000000,-0.000090500000000,-0.000080300000000,-0.000070500000000,-0.000000027100000,0.000000023200000,0.000072600000000,0.000127000000000,-0.000007220000000,-0.000154000000000,0.122000000000000,0.000566000000000,-0.124000000000000,0.000074900000000,0.000741000000000,0.452000000000000,0.541000000000000,
177000.000000000000000,-0.000090500000000,-0.000080400000000,-0.000070500000000,-0.000000026200000,0.000000003000000,0.000072600000000,0.000127000000000,-0.000007250000000,-0.000154000000000,0.122000000000000,0.000566000000000,-0.125000000000000,0.000070800000000,0.000738000000000,0.452000000000000,0.541000000000000,
177000.000000000000000,-0.000090700000000,-0.000080600000000,-0.000070700000000,-0.000000026700000,0.000000023700000,0.000072600000000,0.000127000000000,-0.000007410000000,-0.000154000000000,0.122000000000000,0.000567000000000,-0.125000000000000,0.000082400000000,0.000753000000000,0.452000000000000,0.541000000000000,
177000.000000000000000,-0.000090800000000,-0.000080700000000,-0.000070800000000,-0.000000027500000,0.000000052200000,0.000072600000000,0.000127000000000,-0.000007530000000,-0.000154000000000,0.122000000000000,0.000569000000000,-0.125000000000000,0.000094800000000,0.000766000000000,0.453000000000000,0.542000000000000,
177000.000000000000000,-0.000090800000000,-0.000080700000000,-0.000070800000000,-0.000000027500000,0.000000050700000,0.000072600000000,0.000127000000000,-0.000007480000000,-0.000154000000000,0.123000000000000,0.000568000000000,-0.125000000000000,0.000092400000000,0.000761000000000,0.453000000000000,0.542000000000000,
177000.000000000000000,-0.000090700000000,-0.000080500000000,-0.000070700000000,-0.000000027200000,0.000000029500000,0.000072600000000,0.000127000000000,-0.000007350000000,-0.000154000000000,0.123000000000000,0.000567000000000,-0.125000000000000,0.000079600000000,0.000746000000000,0.453000000000000,0.542000000000000,
177000.000000000000000,-0.000090700000000,-0.000080500000000,-0.000070600000000,-0.000000026900000,0.000000015600000,0.000072700000000,0.000127000000000,-0.000007270000000,-0.000154000000000,0.123000000000000,0.000566000000000,-0.125000000000000,0.000071500000000,0.000738000000000,0.453000000000000,0.543000000000000,
177000.000000000000000,-0.000090800000000,-0.000080600000000,-0.000070700000000,-0.000000026900000,0.000000023100000,0.000072700000000,0.000127000000000,-0.000007370000000,-0.000154000000000,0.123000000000000,0.000567000000000,-0.126000000000000,0.000077600000000,0.000745000000000,0.454000000000000,0.543000000000000,
177000.000000000000000,-0.000091000000000,-0.000080800000000,-0.000070900000000,-0.000000027100000,0.000000038700000,0.000072700000000,0.000127000000000,-0.000007530000000,-0.000154000000000,0.123000000000000,0.000569000000000,-0.126000000000000,0.000088700000000,0.000757000000000,0.454000000000000,0.544000000000000,
177000.000000000000000,-0.000091000000000,-0.000080800000000,-0.000070900000000,-0.000000027000000,0.000000037200000,0.000072700000000,0.000127000000000,-0.000007580000000,-0.000154000000000,0.123000000000000,0.000570000000000,-0.126000000000000,0.000089600000000,0.000761000000000,0.454000000000000,0.544000000000000,
178000.000000000000000,-0.000091000000000,-0.000080800000000,-0.000070800000000,-0.000000026500000,0.000000012100000,0.000072700000000,0.000127000000000,-0.000007480000000,-0.000154000000000,0.124000000000000,0.000569000000000,-0.126000000000000,0.000077800000000,0.000748000000000,0.454000000000000,0.544000000000000,
178000.000000000000000,-0.000090900000000,-0.000080700000000,-0.000070700000000,-0.000000026100000,-0.000000006290000,0.000072700000000,0.000127000000000,-0.000007370000000,-0.000154000000000,0.124000000000000,0.000568000000000,-0.126000000000000,0.000067200000000,0.000734000000000,0.455000000000000,0.545000000000000,
178000.000000000000000,-0.000090900000000,-0.000080700000000,-0.000070700000000,-0.000000026900000,0.000000014600000,0.000072700000000,0.000127000000000,-0.000007380000000,-0.000154000000000,0.124000000000000,0.000568000000000,-0.126000000000000,0.000072500000000,0.000739000000000,0.455000000000000,0.545000000000000,
178000.000000000000000,-0.000091100000000,-0.000080800000000,-0.000070800000000,-0.000000027500000,0.000000040400000,0.000072800000000,0.000127000000000,-0.000007490000000,-0.000154000000000,0.124000000000000,0.000569000000000,-0.127000000000000,0.000084000000000,0.000751000000000,0.455000000000000,0.545000000000000,
178000.000000000000000,-0.000091200000000,-0.000080900000000,-0.000070900000000,-0.000000027100000,0.000000033900000,0.000072800000000,0.000127000000000,-0.000007570000000,-0.000155000000000,0.124000000000000,0.000570000000000,-0.127000000000000,0.000085500000000,0.000753000000000,0.456000000000000,0.546000000000000,
178000.000000000000000,-0.000091200000000,-0.000080900000000,-0.000070900000000,-0.000000026500000,0.000000014600000,0.000072800000000,0.000127000000000,-0.000007570000000,-0.000155000000000,0.124000000000000,0.000570000000000,-0.127000000000000,0.000079800000000,0.000751000000000,0.456000000000000,0.546000000000000,
178000.000000000000000,-0.000091200000000,-0.000080900000000,-0.000070900000000,-0.000000026200000,0.000000000776000,0.000072800000000,0.000127000000000,-0.000007540000000,-0.000155000000000,0.125000000000000,0.000570000000000,-0.127000000000000,0.000074000000000,0.000746000000000,0.456000000000000,0.546000000000000,
178000.000000000000000,-0.000091200000000,-0.000081000000000,-0.000070900000000,-0.000000026400000,0.000000012400000,0.000072800000000,0.000127000000000,-0.000007570000000,-0.000155000000000,0.125000000000000,0.000570000000000,-0.127000000000000,0.000077700000000,0.000746000000000,0.456000000000000,0.547000000000000,
178000.000000000000000,-0.000091300000000,-0.000081000000000,-0.000071000000000,-0.000000027500000,0.000000042200000,0.000072800000000,0.000127000000000,-0.000007600000000,-0.000155000000000,0.125000000000000,0.000570000000000,-0.127000000000000,0.000086500000000,0.000753000000000,0.457000000000000,0.547000000000000,
178000.000000000000000,-0.000091300000000,-0.000081000000000,-0.000071000000000,-0.000000027800000,0.000000046900000,0.000072800000000,0.000127000000000,-0.000007590000000,-0.000155000000000,0.125000000000000,0.000570000000000,-0.128000000000000,0.000086600000000,0.000753000000000,0.457000000000000,0.547000000000000,
179000.000000000000000,-0.000091300000000,-0.000081000000000,-0.000071000000000,-0.000000026900000,0.000000021000000,0.000072900000000,0.000127000000000,-0.000007580000000,-0.000155000000000,0.125000000000000,0.000570000000000,-0.128000000000000,0.000078400000000,0.000744000000000,0.457000000000000,0.548000000000000,
179000.000000000000000,-0.000091400000000,-0.000081100000000,-0.000071000000000,-0.000000026300000,0.000000005510000,0.000072900000000,0.000127000000000,-0.000007620000000,-0.000155000000000,0.125000000000000,0.000571000000000,-0.128000000000000,0.000075400000000,0.000744000000000,0.457000000000000,0.548000000000000,
179000.000000000000000,-0.000091500000000,-0.000081200000000,-0.000071100000000,-0.000000026700000,0.000000021100000,0.000072900000000,0.000127000000000,-0.000007710000000,-0.000155000000000,0.126000000000000,0.000572000000000,-0.128000000000000,0.000083600000000,0.000754000000000,0.458000000000000,0.548000000000000,
179000.000000000000000,-0.000091600000000,-0.000081300000000,-0.000071200000000,-0.000000027300000,0.000000045600000,0.000072900000000,0.000128000000000,-0.000007810000000,-0.000155000000000,0.126000000000000,0.000573000000000,-0.128000000000000,0.000093800000000,0.000763000000000,0.458000000000000,0.549000000000000,
179000.000000000000000,-0.000091600000000,-0.000081200000000,-0.000071200000000,-0.000000027600000,0.000000048500000,0.000072900000000,0.000128000000000,-0.000007760000000,-0.000155000000000,0.126000000000000,0.000572000000000,-0.128000000000000,0.000091600000000,0.000758000000000,0.458000000000000,0.549000000000000,
179000.000000000000000,-0.000091500000000,-0.000081100000000,-0.000071000000000,-0.000000027500000,0.000000032800000,0.000072900000000,0.000128000000000,-0.000007630000000,-0.000155000000000,0.126000000000000,0.000571000000000,-0.129000000000000,0.000081200000000,0.000747000000000,0.458000000000000,0.549000000000000,
179000.000000000000000,-0.000091500000000,-0.000081100000000,-0.000071000000000,-0.000000027000000,0.000000014900000,0.000072900000000,0.000128000000000,-0.000007600000000,-0.000155000000000,0.126000000000000,0.000571000000000,-0.129000000000000,0.000074200000000,0.000741000000000,0.459000000000000,0.550000000000000,
179000.000000000000000,-0.000091700000000,-0.000081300000000,-0.000071100000000,-0.000000026800000,0.000000018500000,0.000073000000000,0.000128000000000,-0.000007710000000,-0.000155000000000,0.126000000000000,0.000572000000000,-0.129000000000000,0.000080000000000,0.000747000000000,0.459000000000000,0.550000000000000,
179000.000000000000000,-0.000091800000000,-0.000081400000000,-0.000071300000000,-0.000000027200000,0.000000039300000,0.000073000000000,0.000128000000000,-0.000007870000000,-0.000155000000000,0.127000000000000,0.000573000000000,-0.129000000000000,0.000092100000000,0.000762000000000,0.459000000000000,0.550000000000000,
179000.000000000000000,-0.000091900000000,-0.000081500000000,-0.000071300000000,-0.000000027100000,0.000000036900000,0.000073000000000,0.000128000000000,-0.000007890000000,-0.000155000000000,0.127000000000000,0.000574000000000,-0.129000000000000,0.000091400000000,0.000762000000000,0.459000000000000,0.551000000000000,
180000.000000000000000,-0.000091800000000,-0.000081300000000,-0.000071200000000,-0.000000026500000,0.000000011400000,0.000073000000000,0.000128000000000,-0.000007760000000,-0.000155000000000,0.127000000000000,0.000573000000000,-0.130000000000000,0.000078300000000,0.000746000000000,0.460000000000000,0.551000000000000,
180000.000000000000000,-0.000091700000000,-0.000081300000000,-0.000071100000000,-0.000000026500000,-0.000000000487000,0.000073000000000,0.000128000000000,-0.000007640000000,-0.000155000000000,0.127000000000000,0.000572000000000,-0.130000000000000,0.000069000000000,0.000735000000000,0.460000000000000,0.551000000000000,
180000.000000000000000,-0.000091800000000,-0.000081300000000,-0.000071100000000,-0.000000026900000,0.000000012500000,0.000073000000000,0.000128000000000,-0.000007680000000,-0.000155000000000,0.127000000000000,0.000572000000000,-0.130000000000000,0.000073200000000,0.000739000000000,0.460000000000000,0.552000000000000,
180000.000000000000000,-0.000091900000000,-0.000081500000000,-0.000071300000000,-0.000000027200000,0.000000030700000,0.000073000000000,0.000128000000000,-0.000007830000000,-0.000155000000000,0.127000000000000,0.000573000000000,-0.130000000000000,0.000084600000000,0.000751000000000,0.461000000000000,0.552000000000000,
180000.000000000000000,-0.000092100000000,-0.000081600000000,-0.000071400000000,-0.000000027000000,0.000000033100000,0.000073100000000,0.000128000000000,-0.000007920000000,-0.000156000000000,0.128000000000000,0.000574000000000,-0.130000000000000,0.000089300000000,0.000758000000000,0.461000000000000,0.553000000000000,
180000.000000000000000,-0.000092100000000,-0.000081600000000,-0.000071400000000,-0.000000026600000,0.000000016300000,0.000073100000000,0.000128000000000,-0.000007910000000,-0.000156000000000,0.128000000000000,0.000574000000000,-0.130000000000000,0.000083100000000,0.000754000000000,0.461000000000000,0.553000000000000,
180000.000000000000000,-0.000092000000000,-0.000081500000000,-0.000071300000000,-0.000000026200000,0.000000002400000,0.000073100000000,0.000128000000000,-0.000007850000000,-0.000155000000000,0.128000000000000,0.000574000000000,-0.131000000000000,0.000076200000000,0.000746000000000,0.461000000000000,0.553000000000000,
180000.000000000000000,-0.000092000000000,-0.000081500000000,-0.000071300000000,-0.000000026900000,0.000000017300000,0.000073100000000,0.000128000000000,-0.000007830000000,-0.000156000000000,0.128000000000000,0.000574000000000,-0.131000000000000,0.000078800000000,0.000746000000000,0.462000000000000,0.554000000000000,
180000.000000000000000,-0.000092100000000,-0.000081600000000,-0.000071400000000,-0.000000028000000,0.000000046900000,0.000073100000000,0.000128000000000,-0.000007890000000,-0.000156000000000,0.128000000000000,0.000574000000000,-0.131000000000000,0.000088600000000,0.000754000000000,0.462000000000000,0.554000000000000,
180000.000000000000000,-0.000092200000000,-0.000081700000000,-0.000071400000000,-0.000000027800000,0.000000046500000,0.000073100000000,0.000128000000000,-0.000007940000000,-0.000156000000000,0.128000000000000,0.000575000000000,-0.131000000000000,0.000090100000000,0.000755000000000,0.462000000000000,0.554000000000000,
181000.000000000000000,-0.000092200000000,-0.000081700000000,-0.000071400000000,-0.000000026900000,0.000000023300000,0.000073100000000,0.000128000000000,-0.000007950000000,-0.000156000000000,0.129000000000000,0.000575000000000,-0.131000000000000,0.000083900000000,0.000751000000000,0.462000000000000,0.555000000000000,
181000.000000000000000,-0.000092300000000,-0.000081700000000,-0.000071500000000,-0.000000026500000,0.000000009660000,0.000073200000000,0.000128000000000,-0.000007970000000,-0.000156000000000,0.129000000000000,0.000575000000000,-0.131000000000000,0.000080400000000,0.000750000000000,0.463000000000000,0.555000000000000,
181000.000000000000000,-0.000092400000000,-0.000081800000000,-0.000071500000000,-0.000000026700000,0.000000018200000,0.000073200000000,0.000128000000000,-0.000008020000000,-0.000156000000000,0.129000000000000,0.000576000000000,-0.132000000000000,0.000084300000000,0.000753000000000,0.463000000000000,0.555000000000000,
181000.000000000000000,-0.000092400000000,-0.000081800000000,-0.000071600000000,-0.000000027500000,0.000000040900000,0.000073200000000,0.000128000000000,-0.000008060000000,-0.000156000000000,0.129000000000000,0.000576000000000,-0.132000000000000,0.000091700000000,0.000758000000000,0.463000000000000,0.556000000000000,
181000.000000000000000,-0.000092400000000,-0.000081800000000,-0.000071500000000,-0.000000027900000,0.000000049100000,0.000073200000000,0.000128000000000,-0.000008020000000,-0.000156000000000,0.129000000000000,0.000576000000000,-0.132000000000000,0.000091400000000,0.000757000000000,0.463000000000000,0.556000000000000,
181000.000000000000000,-0.000092400000000,-0.000081800000000,-0.000071400000000,-0.000000027400000,0.000000029700000,0.000073200000000,0.000128000000000,-0.000007950000000,-0.000156000000000,0.130000000000000,0.000575000000000,-0.132000000000000,0.000082300000000,0.000748000000000,0.464000000000000,0.556000000000000,
181000.000000000000000,-0.000092400000000,-0.000081800000000,-0.000071500000000,-0.000000026600000,0.000000010300000,0.000073200000000,0.000128000000000,-0.000007960000000,-0.000156000000000,0.130000000000000,0.000576000000000,-0.132000000000000,0.000077100000000,0.000744000000000,0.464000000000000,0.557000000000000,
181000.000000000000000,-0.000092500000000,-0.000081900000000,-0.000071600000000,-0.000000026700000,0.000000016700000,0.000073200000000,0.000128000000000,-0.000008070000000,-0.000156000000000,0.130000000000000,0.000577000000000,-0.132000000000000,0.000083200000000,0.000752000000000,0.464000000000000,0.557000000000000,
181000.000000000000000,-0.000092700000000,-0.000082000000000,-0.000071700000000,-0.000000027200000,0.000000036800000,0.000073300000000,0.000128000000000,-0.000008180000000,-0.000156000000000,0.130000000000000,0.000578000000000,-0.133000000000000,0.000093500000000,0.000764000000000,0.464000000000000,0.557000000000000,
181000.000000000000000,-0.000092700000000,-0.000082000000000,-0.000071700000000,-0.000000027300000,0.000000036400000,0.000073300000000,0.000128000000000,-0.000008160000000,-0.000156000000000,0.130000000000000,0.000578000000000,-0.133000000000000,0.000092100000000,0.000760000000000,0.465000000000000,0.558000000000000,
182000.000000000000000,-0.000092600000000,-0.000081900000000,-0.000071600000000,-0.000000027000000,0.000000017300000,0.000073300000000,0.000128000000000,-0.000008040000000,-0.000156000000000,0.130000000000000,0.000577000000000,-0.133000000000000,0.000079900000000,0.000746000000000,0.465000000000000,0.558000000000000,
182000.000000000000000,-0.000092600000000,-0.000081900000000,-0.000071500000000,-0.000000026800000,0.000000004690000,0.000073300000000,0.000128000000000,-0.000007960000000,-0.000156000000000,0.131000000000000,0.000576000000000,-0.133000000000000,0.000071800000000,0.000738000000000,0.465000000000000,0.558000000000000,
182000.000000000000000,-0.000092600000000,-0.000082000000000,-0.000071500000000,-0.000000026700000,0.000000007750000,0.000073300000000,0.000128000000000,-0.000008020000000,-0.000156000000000,0.131000000000000,0.000577000000000,-0.133000000000000,0.000075100000000,0.000741000000000,0.465000000000000,0.559000000000000,
182000.000000000000000,-0.000092800000000,-0.000082100000000,-0.000071700000000,-0.000000027100000,0.000000026300000,0.000073300000000,0.000128000000000,-0.000008180000000,-0.000156000000000,0.131000000000000,0.000578000000000,-0.134000000000000,0.000087200000000,0.000754000000000,0.466000000000000,0.559000000000000,
182000.000000000000000,-0.000092900000000,-0.000082200000000,-0.000071800000000,-0.000000027200000,0.000000033200000,0.000073300000000,0.000128000000000,-0.000008270000000,-0.000156000000000,0.131000000000000,0.000579000000000,-0.134000000000000,0.000092400000000,0.000762000000000,0.466000000000000,0.559000000000000,
182000.000000000000000,-0.000092900000000,-0.000082200000000,-0.000071800000000,-0.000000026700000,0.000000015200000,0.000073400000000,0.000128000000000,-0.000008210000000,-0.000156000000000,0.131000000000000,0.000578000000000,-0.134000000000000,0.000084400000000,0.000753000000000,0.466000000000000,0.560000000000000,
182000.000000000000000,-0.000092800000000,-0.000082100000000,-0.000071700000000,-0.000000026500000,0.000000004970000,0.000073400000000,0.000128000000000,-0.000008130000000,-0.000156000000000,0.131000000000000,0.000578000000000,-0.134000000000000,0.000077000000000,0.000744000000000,0.467000000000000,0.560000000000000,
182000.000000000000000,-0.000092900000000,-0.000082100000000,-0.000071700000000,-0.000000027200000,0.000000021300000,0.000073400000000,0.000128000000000,-0.000008120000000,-0.000156000000000,0.132000000000000,0.000578000000000,-0.134000000000000,0.000080300000000,0.000746000000000,0.467000000000000,0.560000000000000,
182000.000000000000000,-0.000092900000000,-0.000082200000000,-0.000071700000000,-0.000000027300000,0.000000050200000,0.000073400000000,0.000128000000000,-0.000008160000000,-0.000157000000000,0.132000000000000,0.000578000000000,-0.134000000000000,0.000090200000000,0.000754000000000,0.467000000000000,0.561000000000000,
182000.000000000000000,-0.000092800000000,-0.000082000000000,-0.000071600000000,-0.000000029100000,0.000000049000000,0.000073100000000,0.000128000000000,-0.000008280000000,-0.000156000000000,0.132000000000000,0.000577000000000,-0.135000000000000,0.000091700000000,0.000757000000000,0.467000000000000,0.561000000000000,
183000.000000000000000,-0.000093100000000,-0.000082300000000,-0.000071900000000,-0.000000024800000,0.000000000031600,0.000073400000000,0.000129000000000,-0.000008290000000,-0.000157000000000,0.132000000000000,0.000580000000000,-0.135000000000000,0.000080600000000,0.000741000000000,0.468000000000000,0.561000000000000,
183000.000000000000000,-0.000093100000000,-0.000082300000000,-0.000071800000000,-0.000000025500000,-0.000000009840000,0.000073400000000,0.000128000000000,-0.000008350000000,-0.000157000000000,0.132000000000000,0.000579000000000,-0.135000000000000,0.000074500000000,0.000741000000000,0.468000000000000,0.562000000000000,
183000.000000000000000,-0.000093100000000,-0.000082300000000,-0.000071800000000,-0.000000026800000,0.000000012200000,0.000073500000000,0.000129000000000,-0.000008190000000,-0.000157000000000,0.132000000000000,0.000579000000000,-0.135000000000000,0.000081500000000,0.000750000000000,0.468000000000000,0.562000000000000,
183000.000000000000000,-0.000093100000000,-0.000082300000000,-0.000071800000000,-0.000000028600000,0.000000051500000,0.000073500000000,0.000129000000000,-0.000008240000000,-0.000157000000000,0.133000000000000,0.000579000000000,-0.135000000000000,0.000093100000000,0.000761000000000,0.468000000000000,0.562000000000000,
183000.000000000000000,-0.000093300000000,-0.000082500000000,-0.000072000000000,-0.000000028800000,0.000000056200000,0.000073500000000,0.000129000000000,-0.000008420000000,-0.000157000000000,0.133000000000000,0.000581000000000,-0.135000000000000,0.000091900000000,0.000758000000000,0.468000000000000,0.563000000000000,
183000.000000000000000,-0.000093200000000,-0.000082400000000,-0.000071800000000,-0.000000026400000,0.000000007640000,0.000073500000000,0.000129000000000,-0.000008260000000,-0.000157000000000,0.133000000000000,0.000579000000000,-0.135000000000000,0.000076300000000,0.000737000000000,0.469000000000000,0.563000000000000,
183000.000000000000000,-0.000093200000000,-0.000082300000000,-0.000071800000000,-0.000000025700000,-0.000000010900000,0.000073500000000,0.000129000000000,-0.000008190000000,-0.000157000000000,0.133000000000000,0.000579000000000,-0.136000000000000,0.000071400000000,0.000735000000000,0.469000000000000,0.563000000000000,
183000.000000000000000,-0.000093300000000,-0.000082500000000,-0.000071900000000,-0.000000026800000,0.000000013900000,0.000073500000000,0.000129000000000,-0.000008330000000,-0.000157000000000,0.133000000000000,0.000580000000000,-0.136000000000000,0.000082700000000,0.000752000000000,0.469000000000000,0.564000000000000,
183000.000000000000000,-0.000093500000000,-0.000082600000000,-0.000072100000000,-0.000000027200000,0.000000035300000,0.000073500000000,0.000129000000000,-0.000008470000000,-0.000157000000000,0.133000000000000,0.000582000000000,-0.136000000000000,0.000093900000000,0.000762000000000,0.470000000000000,0.564000000000000,
183000.000000000000000,-0.000093500000000,-0.000082600000000,-0.000072000000000,-0.000000028100000,0.000000045700000,0.000073600000000,0.000129000000000,-0.000008440000000,-0.000157000000000,0.134000000000000,0.000581000000000,-0.136000000000000,0.000093500000000,0.000763000000000,0.470000000000000,0.564000000000000,
184000.000000000000000,-0.000093300000000,-0.000082400000000,-0.000071800000000,-0.000000027500000,0.000000018000000,0.000073600000000,0.000129000000000,-0.000008250000000,-0.000157000000000,0.134000000000000,0.000580000000000,-0.136000000000000,0.000077700000000,0.000746000000000,0.470000000000000,0.565000000000000,
184000.000000000000000,-0.000093300000000,-0.000082400000000,-0.000071800000000,-0.000000025700000,-0.000000018800000,0.000073600000000,0.000129000000000,-0.000008190000000,-0.000157000000000,0.134000000000000,0.000579000000000,-0.137000000000000,0.000064800000000,0.000726000000000,0.470000000000000,0.565000000000000,
184000.000000000000000,-0.000093500000000,-0.000082500000000,-0.000071900000000,-0.000000026400000,0.000000003500000,0.000073600000000,0.000129000000000,-0.000008320000000,-0.000157000000000,0.134000000000000,0.000581000000000,-0.137000000000000,0.000074800000000,0.000739000000000,0.471000000000000,0.565000000000000,
184000.000000000000000,-0.000093600000000,-0.000082700000000,-0.000072100000000,-0.000000027200000,0.000000032800000,0.000073600000000,0.000129000000000,-0.000008470000000,-0.000157000000000,0.134000000000000,0.000582000000000,-0.137000000000000,0.000090900000000,0.000758000000000,0.471000000000000,0.566000000000000,
184000.000000000000000,-0.000093700000000,-0.000082800000000,-0.000072200000000,-0.000000027200000,0.000000035300000,0.000073600000000,0.000129000000000,-0.000008560000000,-0.000157000000000,0.134000000000000,0.000583000000000,-0.137000000000000,0.000094600000000,0.000763000000000,0.471000000000000,0.566000000000000,
184000.000000000000000,-0.000093700000000,-0.000082700000000,-0.000072100000000,-0.000000027400000,0.000000023200000,0.000073600000000,0.000129000000000,-0.000008440000000,-0.000157000000000,0.135000000000000,0.000582000000000,-0.137000000000000,0.000085600000000,0.000757000000000,0.471000000000000,0.566000000000000,
184000.000000000000000,-0.000093600000000,-0.000082600000000,-0.000072000000000,-0.000000027000000,0.000000008380000,0.000073600000000,0.000129000000000,-0.000008350000000,-0.000157000000000,0.135000000000000,0.000581000000000,-0.137000000000000,0.000076600000000,0.000745000000000,0.472000000000000,0.567000000000000,
184000.000000000000000,-0.000093700000000,-0.000082700000000,-0.000072000000000,-0.000000027000000,0.000000018200000,0.000073700000000,0.000129000000000,-0.000008400000000,-0.000157000000000,0.135000000000000,0.000582000000000,-0.138000000000000,0.000080300000000,0.000744000000000,0.472000000000000,0.567000000000000,
184000.000000000000000,-0.000093800000000,-0.000082800000000,-0.000072200000000,-0.000000028000000,0.000000046200000,0.000073700000000,0.000129000000000,-0.000008510000000,-0.000157000000000,0.135000000000000,0.000583000000000,-0.138000000000000,0.000092500000000,0.000755000000000,0.472000000000000,0.567000000000000,
184000.000000000000000,-0.000093900000000,-0.000082900000000,-0.000072200000000,-0.000000027800000,0.000000044500000,0.000073700000000,0.000129000000000,-0.000008590000000,-0.000158000000000,0.135000000000000,0.000584000000000,-0.138000000000000,0.000095100000000,0.000759000000000,0.472000000000000,0.568000000000000,
185000.000000000000000,-0.000093900000000,-0.000082900000000,-0.000072200000000,-0.000000027200000,0.000000020000000,0.000073700000000,0.000129000000000,-0.000008560000000,-0.000158000000000,0.136000000000000,0.000583000000000,-0.138000000000000,0.000086100000000,0.000754000000000,0.473000000000000,0.568000000000000,
185000.000000000000000,-0.000093900000000,-0.000082900000000,-0.000072200000000,-0.000000026600000,0.000000000875000,0.000073700000000,0.000129000000000,-0.000008530000000,-0.000158000000000,0.136000000000000,0.000583000000000,-0.138000000000000,0.000078300000000,0.000747000000000,0.473000000000000,0.569000000000000,
185000.000000000000000,-0.000094000000000,-0.000082900000000,-0.000072200000000,-0.000000027100000,0.000000013500000,0.000073700000000,0.000129000000000,-0.000008540000000,-0.000158000000000,0.136000000000000,0.000583000000000,-0.138000000000000,0.000081900000000,0.000748000000000,0.473000000000000,0.569000000000000,
185000.000000000000000,-0.000094000000000,-0.000083000000000,-0.000072300000000,-0.000000028000000,0.000000039200000,0.000073700000000,0.000129000000000,-0.000008590000000,-0.000158000000000,0.136000000000000,0.000584000000000,-0.139000000000000,0.000090000000000,0.000753000000000,0.473000000000000,0.569000000000000,
185000.000000000000000,-0.000094000000000,-0.000083000000000,-0.000072200000000,-0.000000027700000,0.000000036200000,0.000073800000000,0.000129000000000,-0.000008580000000,-0.000158000000000,0.136000000000000,0.000584000000000,-0.139000000000000,0.000088900000000,0.000750000000000,0.474000000000000,0.569000000000000,
185000.000000000000000,-0.000094000000000,-0.000083000000000,-0.000072200000000,-0.000000027000000,0.000000015100000,0.000073800000000,0.000129000000000,-0.000008550000000,-0.000158000000000,0.136000000000000,0.000584000000000,-0.139000000000000,0.000080800000000,0.000746000000000,0.474000000000000,0.570000000000000,
185000.000000000000000,-0.000094100000000,-0.000083000000000,-0.000072200000000,-0.000000026800000,0.000000004900000,0.000073800000000,0.000129000000000,-0.000008560000000,-0.000158000000000,0.137000000000000,0.000584000000000,-0.139000000000000,0.000078200000000,0.000748000000000,0.474000000000000,0.570000000000000,
185000.000000000000000,-0.000094200000000,-0.000083100000000,-0.000072300000000,-0.000000026700000,0.000000012000000,0.000073800000000,0.000129000000000,-0.000008650000000,-0.000158000000000,0.137000000000000,0.000585000000000,-0.139000000000000,0.000085200000000,0.000754000000000,0.474000000000000,0.571000000000000,
185000.000000000000000,-0.000094300000000,-0.000083200000000,-0.000072400000000,-0.000000027500000,0.000000038000000,0.000073800000000,0.000129000000000,-0.000008740000000,-0.000158000000000,0.137000000000000,0.000586000000000,-0.140000000000000,0.000095200000000,0.000763000000000,0.475000000000000,0.571000000000000,
185000.000000000000000,-0.000094300000000,-0.000083200000000,-0.000072400000000,-0.000000027800000,0.000000040200000,0.000073800000000,0.000129000000000,-0.000008700000000,-0.000158000000000,0.137000000000000,0.000585000000000,-0.140000000000000,0.000092600000000,0.000759000000000,0.475000000000000,0.571000000000000,
186000.000000000000000,-0.000094200000000,-0.000083100000000,-0.000072300000000,-0.000000026700000,0.000000008060000,0.000073800000000,0.000129000000000,-0.000008570000000,-0.000158000000000,0.137000000000000,0.000584000000000,-0.140000000000000,0.000077400000000,0.000741000000000,0.475000000000000,0.572000000000000,
186000.000000000000000,-0.000094200000000,-0.000083100000000,-0.000072200000000,-0.000000026600000,-0.000000004000000,0.000073900000000,0.000129000000000,-0.000008540000000,-0.000158000000000,0.137000000000000,0.000584000000000,-0.140000000000000,0.000071200000000,0.000736000000000,0.475000000000000,0.572000000000000,
186000.000000000000000,-0.000094300000000,-0.000083200000000,-0.000072400000000,-0.000000027100000,0.000000011900000,0.000073900000000,0.000129000000000,-0.000008670000000,-0.000158000000000,0.138000000000000,0.000585000000000,-0.140000000000000,0.000080700000000,0.000748000000000,0.476000000000000,0.572000000000000,
186000.000000000000000,-0.000094500000000,-0.000083400000000,-0.000072500000000,-0.000000027300000,0.000000029300000,0.000073900000000,0.000129000000000,-0.000008830000000,-0.000158000000000,0.138000000000000,0.000587000000000,-0.140000000000000,0.000093100000000,0.000759000000000,0.476000000000000,0.573000000000000,
186000.000000000000000,-0.000094600000000,-0.000083400000000,-0.000072600000000,-0.000000027700000,0.000000035200000,0.000073900000000,0.000129000000000,-0.000008870000000,-0.000158000000000,0.138000000000000,0.000587000000000,-0.141000000000000,0.000095400000000,0.000762000000000,0.476000000000000,0.573000000000000,
186000.000000000000000,-0.000094500000000,-0.000083300000000,-0.000072500000000,-0.000000027200000,0.000000016700000,0.000073900000000,0.000129000000000,-0.000008760000000,-0.000158000000000,0.138000000000000,0.000586000000000,-0.141000000000000,0.000084500000000,0.000751000000000,0.476000000000000,0.573000000000000,
186000.000000000000000,-0.000094500000000,-0.000083300000000,-0.000072400000000,-0.000000026800000,0.000000004480000,0.000073900000000,0.000129000000000,-0.000008670000000,-0.000158000000000,0.138000000000000,0.000585000000000,-0.141000000000000,0.000076200000000,0.000740000000000,0.477000000000000,0.574000000000000,
186000.000000000000000,-0.000094500000000,-0.000083300000000,-0.000072400000000,-0.000000027600000,0.000000023700000,0.000073900000000,0.000129000000000,-0.000008720000000,-0.000158000000000,0.138000000000000,0.000586000000000,-0.141000000000000,0.000083200000000,0.000747000000000,0.477000000000000,0.574000000000000,
186000.000000000000000,-0.000094700000000,-0.000083500000000,-0.000072600000000,-0.000000028300000,0.000000047800000,0.000074000000000,0.000130000000000,-0.000008850000000,-0.000158000000000,0.139000000000000,0.000587000000000,-0.141000000000000,0.000095900000000,0.000760000000000,0.477000000000000,0.574000000000000,
186000.000000000000000,-0.000094800000000,-0.000083600000000,-0.000072700000000,-0.000000028000000,0.000000045000000,0.000074000000000,0.000130000000000,-0.000008930000000,-0.000159000000000,0.139000000000000,0.000588000000000,-0.141000000000000,0.000098600000000,0.000764000000000,0.477000000000000,0.575000000000000,
187000.000000000000000,-0.000094800000000,-0.000083600000000,-0.000072600000000,-0.000000027000000,0.000000017400000,0.000074000000000,0.000130000000000,-0.000008900000000,-0.000159000000000,0.139000000000000,0.000588000000000,-0.142000000000000,0.000088700000000,0.000756000000000,0.478000000000000,0.575000000000000,
187000.000000000000000,-0.000094800000000,-0.000083500000000,-0.000072600000000,-0.000000026400000,0.000000001200000,0.000074000000000,0.000130000000000,-0.000008830000000,-0.000158000000000,0.139000000000000,0.000587000000000,-0.142000000000000,0.000080100000000,0.000747000000000,0.478000000000000,0.575000000000000,
187000.000000000000000,-0.000094800000000,-0.000083500000000,-0.000072600000000,-0.000000027200000,0.000000016600000,0.000074000000000,0.000130000000000,-0.000008830000000,-0.000159000000000,0.139000000000000,0.000587000000000,-0.142000000000000,0.000083300000000,0.000749000000000,0.478000000000000,0.576000000000000,
187000.000000000000000,-0.000094800000000,-0.000083600000000,-0.000072600000000,-0.000000027800000,0.000000035900000,0.000074000000000,0.000130000000000,-0.000008880000000,-0.000159000000000,0.140000000000000,0.000588000000000,-0.142000000000000,0.000090200000000,0.000752000000000,0.478000000000000,0.576000000000000,
187000.000000000000000,-0.000094900000000,-0.000083600000000,-0.000072700000000,-0.000000027900000,0.000000037200000,0.000074000000000,0.000130000000000,-0.000008900000000,-0.000159000000000,0.140000000000000,0.000588000000000,-0.142000000000000,0.000091100000000,0.000754000000000,0.479000000000000,0.576000000000000,
187000.000000000000000,-0.000094900000000,-0.000083600000000,-0.000072600000000,-0.000000027200000,0.000000016000000,0.000074100000000,0.000130000000000,-0.000008880000000,-0.000159000000000,0.140000000000000,0.000588000000000,-0.143000000000000,0.000084200000000,0.000751000000000,0.479000000000000,0.577000000000000,
187000.000000000000000,-0.000095000000000,-0.000083700000000,-0.000072700000000,-0.000000026300000,-0.000000003570000,0.000074100000000,0.000130000000000,-0.000008910000000,-0.000159000000000,0.140000000000000,0.000588000000000,-0.143000000000000,0.000079700000000,0.000748000000000,0.479000000000000,0.577000000000000,
187000.000000000000000,-0.000095100000000,-0.000083800000000,-0.000072800000000,-0.000000026800000,0.000000012400000,0.000074100000000,0.000130000000000,-0.000008990000000,-0.000159000000000,0.140000000000000,0.000589000000000,-0.143000000000000,0.000087100000000,0.000755000000000,0.480000000000000,0.577000000000000,
187000.000000000000000,-0.000095100000000,-0.000083800000000,-0.000072800000000,-0.000000027900000,0.000000037900000,0.000074100000000,0.000130000000000,-0.000009030000000,-0.000159000000000,0.140000000000000,0.000590000000000,-0.143000000000000,0.000095100000000,0.000761000000000,0.480000000000000,0.578000000000000,
187000.000000000000000,-0.000095100000000,-0.000083800000000,-0.000072800000000,-0.000000027900000,0.000000034700000,0.000074100000000,0.000130000000000,-0.000008980000000,-0.000159000000000,0.141000000000000,0.000589000000000,-0.143000000000000,0.000091200000000,0.000754000000000,0.480000000000000,0.578000000000000,
188000.000000000000000,-0.000095100000000,-0.000083700000000,-0.000072700000000,-0.000000027400000,0.000000013700000,0.000074100000000,0.000130000000000,-0.000008900000000,-0.000159000000000,0.141000000000000,0.000588000000000,-0.143000000000000,0.000080200000000,0.000744000000000,0.480000000000000,0.578000000000000,
188000.000000000000000,-0.000095100000000,-0.000083700000000,-0.000072700000000,-0.000000026900000,0.000000000323000,0.000074100000000,0.000130000000000,-0.000008910000000,-0.000159000000000,0.141000000000000,0.000589000000000,-0.144000000000000,0.000075900000000,0.000742000000000,0.481000000000000,0.579000000000000,
188000.000000000000000,-0.000095300000000,-0.000083900000000,-0.000072800000000,-0.000000026800000,0.000000008770000,0.000074200000000,0.000130000000000,-0.000009050000000,-0.000159000000000,0.141000000000000,0.000590000000000,-0.144000000000000,0.000084500000000,0.000750000000000,0.481000000000000,0.579000000000000,
188000.000000000000000,-0.000095400000000,-0.000084000000000,-0.000073000000000,-0.000000027400000,0.000000031200000,0.000074200000000,0.000130000000000,-0.000009180000000,-0.000159000000000,0.141000000000000,0.000591000000000,-0.144000000000000,0.000096700000000,0.000762000000000,0.481000000000000,0.579000000000000,
188000.000000000000000,-0.000095400000000,-0.000084000000000,-0.000073000000000,-0.000000027700000,0.000000036300000,0.000074200000000,0.000130000000000,-0.000009170000000,-0.000159000000000,0.142000000000000,0.000591000000000,-0.144000000000000,0.000097100000000,0.000762000000000,0.481000000000000,0.580000000000000,
188000.000000000000000,-0.000095300000000,-0.000084000000000,-0.000072800000000,-0.000000027300000,0.000000018300000,0.000074200000000,0.000130000000000,-0.000009050000000,-0.000159000000000,0.142000000000000,0.000590000000000,-0.144000000000000,0.000085800000000,0.000750000000000,0.482000000000000,0.580000000000000,
188000.000000000000000,-0.000095300000000,-0.000083900000000,-0.000072800000000,-0.000000027100000,0.000000008940000,0.000074200000000,0.000130000000000,-0.000008970000000,-0.000159000000000,0.142000000000000,0.000590000000000,-0.144000000000000,0.000078900000000,0.000743000000000,0.482000000000000,0.580000000000000,
188000.000000000000000,-0.000095400000000,-0.000084000000000,-0.000072900000000,-0.000000027700000,0.000000026300000,0.000074200000000,0.000130000000000,-0.000009060000000,-0.000159000000000,0.142000000000000,0.000590000000000,-0.145000000000000,0.000087100000000,0.000751000000000,0.482000000000000,0.581000000000000,
188000.000000000000000,-0.000095600000000,-0.000084200000000,-0.000073000000000,-0.000000028100000,0.000000045800000,0.000074200000000,0.000130000000000,-0.000009220000000,-0.000159000000000,0.142000000000000,0.000592000000000,-0.145000000000000,0.000099600000000,0.000764000000000,0.482000000000000,0.581000000000000,
188000.000000000000000,-0.000095700000000,-0.000084200000000,-0.000073100000000,-0.000000027700000,0.000000040800000,0.000074300000000,0.000130000000000,-0.000009280000000,-0.000159000000000,0.142000000000000,0.000593000000000,-0.145000000000000,0.000101000000000,0.000766000000000,0.483000000000000,0.581000000000000,
189000.000000000000000,-0.000095600000000,-0.000084200000000,-0.000073000000000,-0.000000027100000,0.000000018100000,0.000074300000000,0.000130000000000,-0.000009210000000,-0.000159000000000,0.143000000000000,0.000592000000000,-0.145000000000000,0.000090800000000,0.000758000000000,0.483000000000000,0.582000000000000,
189000.000000000000000,-0.000095600000000,-0.000084100000000,-0.000073000000000,-0.000000026900000,0.000000004160000,0.000074300000000,0.000130000000000,-0.000009130000000,-0.000159000000000,0.143000000000000,0.000591000000000,-0.145000000000000,0.000081400000000,0.000748000000000,0.483000000000000,0.582000000000000,
189000.000000000000000,-0.000095600000000,-0.000084100000000,-0.000073000000000,-0.000000027300000,0.000000014300000,0.000074300000000,0.000130000000000,-0.000009130000000,-0.000159000000000,0.143000000000000,0.000591000000000,-0.146000000000000,0.000083400000000,0.000746000000000,0.483000000000000,0.582000000000000,
189000.000000000000000,-0.000095700000000,-0.000084200000000,-0.000073000000000,-0.000000028000000,0.000000034600000,0.000074300000000,0.000130000000000,-0.000009200000000,-0.000160000000000,0.143000000000000,0.000592000000000,-0.146000000000000,0.000091500000000,0.000753000000000,0.484000000000000,0.583000000000000,
189000.000000000000000,-0.000095800000000,-0.000084300000000,-0.000073100000000,-0.000000028000000,0.000000034200000,0.000074300000000,0.000130000000000,-0.000009250000000,-0.000160000000000,0.143000000000000,0.000593000000000,-0.146000000000000,0.000093100000000,0.000756000000000,0.484000000000000,0.583000000000000,
189000.000000000000000,-0.000095800000000,-0.000084300000000,-0.000073100000000,-0.000000026900000,0.000000009440000,0.000074300000000,0.000130000000000,-0.000009250000000,-0.000160000000000,0.143000000000000,0.000593000000000,-0.146000000000000,0.000086100000000,0.000751000000000,0.484000000000000,0.583000000000000,
189000.000000000000000,-0.000095800000000,-0.000084300000000,-0.000073100000000,-0.000000026500000,-0.000000002780000,0.000074400000000,0.000130000000000,-0.000009250000000,-0.000160000000000,0.144000000000000,0.000593000000000,-0.146000000000000,0.000082400000000,0.000750000000000,0.484000000000000,0.584000000000000,
189000.000000000000000,-0.000095900000000,-0.000084400000000,-0.000073100000000,-0.000000027200000,0.000000014800000,0.000074400000000,0.000130000000000,-0.000009300000000,-0.000160000000000,0.144000000000000,0.000593000000000,-0.146000000000000,0.000088600000000,0.000756000000000,0.485000000000000,0.584000000000000,
189000.000000000000000,-0.000096000000000,-0.000084400000000,-0.000073200000000,-0.000000027900000,0.000000035300000,0.000074400000000,0.000130000000000,-0.000009330000000,-0.000160000000000,0.144000000000000,0.000594000000000,-0.147000000000000,0.000095400000000,0.000759000000000,0.485000000000000,0.584000000000000,
189000.000000000000000,-0.000096000000000,-0.000084400000000,-0.000073200000000,-0.000000028000000,0.000000036500000,0.000074400000000,0.000130000000000,-0.000009300000000,-0.000160000000000,0.144000000000000,0.000593000000000,-0.147000000000000,0.000093400000000,0.000756000000000,0.485000000000000,0.585000000000000,
190000.000000000000000,-0.000096000000000,-0.000084400000000,-0.000073100000000,-0.000000027500000,0.000000018000000,0.000074400000000,0.000130000000000,-0.000009260000000,-0.000160000000000,0.144000000000000,0.000593000000000,-0.147000000000000,0.000085000000000,0.000749000000000,0.485000000000000,0.585000000000000,
190000.000000000000000,-0.000096000000000,-0.000084400000000,-0.000073100000000,-0.000000026700000,0.000000000821000,0.000074400000000,0.000130000000000,-0.000009270000000,-0.000160000000000,0.145000000000000,0.000593000000000,-0.147000000000000,0.000080800000000,0.000746000000000,0.486000000000000,0.585000000000000,
190000.000000000000000,-0.000096200000000,-0.000084600000000,-0.000073300000000,-0.000000026900000,0.000000012000000,0.000074400000000,0.000130000000000,-0.000009390000000,-0.000160000000000,0.145000000000000,0.000594000000000,-0.147000000000000,0.000089100000000,0.000755000000000,0.486000000000000,0.586000000000000,
190000.000000000000000,-0.000096300000000,-0.000084700000000,-0.000073400000000,-0.000000027700000,0.000000034800000,0.000074500000000,0.000130000000000,-0.000009500000000,-0.000160000000000,0.145000000000000,0.000595000000000,-0.148000000000000,0.000099700000000,0.000765000000000,0.486000000000000,0.586000000000000,
190000.000000000000000,-0.000096300000000,-0.000084700000000,-0.000073300000000,-0.000000027800000,0.000000035700000,0.000074500000000,0.000130000000000,-0.000009470000000,-0.000160000000000,0.145000000000000,0.000595000000000,-0.148000000000000,0.000098100000000,0.000762000000000,0.486000000000000,0.587000000000000,
190000.000000000000000,-0.000096200000000,-0.000084600000000,-0.000073200000000,-0.000000027400000,0.000000019100000,0.000074500000000,0.000131000000000,-0.000009370000000,-0.000160000000000,0.145000000000000,0.000594000000000,-0.148000000000000,0.000087400000000,0.000750000000000,0.487000000000000,0.587000000000000,
190000.000000000000000,-0.000096200000000,-0.000084500000000,-0.000073200000000,-0.000000027300000,0.000000011300000,0.000074500000000,0.000131000000000,-0.000009320000000,-0.000160000000000,0.145000000000000,0.000594000000000,-0.148000000000000,0.000081800000000,0.000745000000000,0.487000000000000,0.587000000000000,
190000.000000000000000,-0.000096300000000,-0.000084600000000,-0.000073300000000,-0.000000027700000,0.000000024400000,0.000074500000000,0.000131000000000,-0.000009400000000,-0.000160000000000,0.146000000000000,0.000595000000000,-0.148000000000000,0.000089600000000,0.000753000000000,0.487000000000000,0.588000000000000,
190000.000000000000000,-0.000096500000000,-0.000084800000000,-0.000073400000000,-0.000000028100000,0.000000041200000,0.000074500000000,0.000131000000000,-0.000009550000000,-0.000160000000000,0.146000000000000,0.000596000000000,-0.148000000000000,0.000101000000000,0.000764000000000,0.487000000000000,0.588000000000000,
190000.000000000000000,-0.000096600000000,-0.000084900000000,-0.000073500000000,-0.000000027900000,0.000000038700000,0.000074500000000,0.000131000000000,-0.000009610000000,-0.000160000000000,0.146000000000000,0.000597000000000,-0.149000000000000,0.000102000000000,0.000767000000000,0.488000000000000,0.588000000000000,
191000.000000000000000,-0.000096500000000,-0.000084800000000,-0.000073400000000,-0.000000027300000,0.000000017800000,0.000074600000000,0.000131000000000,-0.000009540000000,-0.000160000000000,0.146000000000000,0.000596000000000,-0.149000000000000,0.000092000000000,0.000758000000000,0.488000000000000,0.589000000000000,
191000.000000000000000,-0.000096500000000,-0.000084800000000,-0.000073400000000,-0.000000026900000,0.000000002970000,0.000074600000000,0.000131000000000,-0.000009450000000,-0.000160000000000,0.146000000000000,0.000595000000000,-0.149000000000000,0.000082600000000,0.000747000000000,0.488000000000000,0.589000000000000,
191000.000000000000000,-0.000096500000000,-0.000084800000000,-0.000073400000000,-0.000000027400000,0.000000014900000,0.000074600000000,0.000131000000000,-0.000009460000000,-0.000160000000000,0.147000000000000,0.000596000000000,-0.149000000000000,0.000085100000000,0.000747000000000,0.488000000000000,0.589000000000000,
191000.000000000000000,-0.000096600000000,-0.000084900000000,-0.000073400000000,-0.000000028100000,0.000000034200000,0.000074600000000,0.000131000000000,-0.000009530000000,-0.000161000000000,0.147000000000000,0.000596000000000,-0.149000000000000,0.000093500000000,0.000755000000000,0.489000000000000,0.590000000000000,
191000.000000000000000,-0.000096700000000,-0.000084900000000,-0.000073500000000,-0.000000027800000,0.000000029000000,0.000074600000000,0.000131000000000,-0.000009580000000,-0.000161000000000,0.147000000000000,0.000597000000000,-0.150000000000000,0.000094300000000,0.000756000000000,0.489000000000000,0.590000000000000,
191000.000000000000000,-0.000096700000000,-0.000084900000000,-0.000073500000000,-0.000000026900000,0.000000008970000,0.000074600000000,0.000131000000000,-0.000009590000000,-0.000161000000000,0.147000000000000,0.000597000000000,-0.150000000000000,0.000088500000000,0.000754000000000,0.489000000000000,0.590000000000000,
191000.000000000000000,-0.000096700000000,-0.000085000000000,-0.000073500000000,-0.000000026600000,0.000000000327000,0.000074600000000,0.000131000000000,-0.000009590000000,-0.000161000000000,0.147000000000000,0.000597000000000,-0.150000000000000,0.000085500000000,0.000753000000000,0.489000000000000,0.591000000000000,
191000.000000000000000,-0.000096800000000,-0.000085000000000,-0.000073500000000,-0.000000027100000,0.000000013800000,0.000074600000000,0.000131000000000,-0.000009620000000,-0.000161000000000,0.147000000000000,0.000597000000000,-0.150000000000000,0.000090300000000,0.000756000000000,0.490000000000000,0.591000000000000,
191000.000000000000000,-0.000096800000000,-0.000085100000000,-0.000073600000000,-0.000000028000000,0.000000035600000,0.000074700000000,0.000131000000000,-0.000009640000000,-0.000161000000000,0.148000000000000,0.000598000000000,-0.150000000000000,0.000097000000000,0.000759000000000,0.490000000000000,0.591000000000000,
191000.000000000000000,-0.000096800000000,-0.000085000000000,-0.000073600000000,-0.000000028300000,0.000000037800000,0.000074700000000,0.000131000000000,-0.000009620000000,-0.000161000000000,0.148000000000000,0.000598000000000,-0.150000000000000,0.000095500000000,0.000757000000000,0.490000000000000,0.592000000000000,
192000.000000000000000,-0.000096800000000,-0.000085000000000,-0.000073500000000,-0.000000027500000,0.000000016900000,0.000074700000000,0.000131000000000,-0.000009590000000,-0.000161000000000,0.148000000000000,0.000597000000000,-0.151000000000000,0.000087200000000,0.000750000000000,0.490000000000000,0.592000000000000,
192000.000000000000000,-0.000096900000000,-0.000085100000000,-0.000073600000000,-0.000000026900000,0.000000003390000,0.000074700000000,0.000131000000000,-0.000009630000000,-0.000161000000000,0.148000000000000,0.000598000000000,-0.151000000000000,0.000084600000000,0.000749000000000,0.491000000000000,0.592000000000000,
192000.000000000000000,-0.000097000000000,-0.000085200000000,-0.000073700000000,-0.000000027200000,0.000000015800000,0.000074700000000,0.000131000000000,-0.000009740000000,-0.000161000000000,0.148000000000000,0.000599000000000,-0.151000000000000,0.000092900000000,0.000758000000000,0.491000000000000,0.593000000000000,
192000.000000000000000,-0.000097200000000,-0.000085300000000,-0.000073800000000,-0.000000027800000,0.000000034400000,0.000074700000000,0.000131000000000,-0.000009830000000,-0.000161000000000,0.149000000000000,0.000600000000000,-0.151000000000000,0.000102000000000,0.000765000000000,0.491000000000000,0.593000000000000,
192000.000000000000000,-0.000097100000000,-0.000085300000000,-0.000073800000000,-0.000000027900000,0.000000034300000,0.000074700000000,0.000131000000000,-0.000009800000000,-0.000161000000000,0.149000000000000,0.000600000000000,-0.151000000000000,0.000099100000000,0.000761000000000,0.491000000000000,0.593000000000000,
192000.000000000000000,-0.000097100000000,-0.000085200000000,-0.000073600000000,-0.000000027700000,0.000000019800000,0.000074800000000,0.000131000000000,-0.000009690000000,-0.000161000000000,0.149000000000000,0.000599000000000,-0.152000000000000,0.000088800000000,0.000751000000000,0.492000000000000,0.594000000000000,
192000.000000000000000,-0.000097100000000,-0.000085200000000,-0.000073600000000,-0.000000027400000,0.000000011200000,0.000074800000000,0.000131000000000,-0.000009650000000,-0.000161000000000,0.149000000000000,0.000598000000000,-0.152000000000000,0.000083900000000,0.000746000000000,0.492000000000000,0.594000000000000,
192000.000000000000000,-0.000097200000000,-0.000085300000000,-0.000073700000000,-0.000000027600000,0.000000021800000,0.000074800000000,0.000131000000000,-0.000009750000000,-0.000161000000000,0.149000000000000,0.000599000000000,-0.152000000000000,0.000091500000000,0.000754000000000,0.492000000000000,0.594000000000000,
192000.000000000000000,-0.000097400000000,-0.000085500000000,-0.000073900000000,-0.000000028100000,0.000000039600000,0.000074800000000,0.000131000000000,-0.000009890000000,-0.000161000000000,0.149000000000000,0.000601000000000,-0.152000000000000,0.000103000000000,0.000766000000000,0.492000000000000,0.595000000000000,
192000.000000000000000,-0.000097400000000,-0.000085500000000,-0.000073900000000,-0.000000027900000,0.000000036500000,0.000074800000000,0.000131000000000,-0.000009930000000,-0.000161000000000,0.150000000000000,0.000601000000000,-0.152000000000000,0.000103000000000,0.000768000000000,0.493000000000000,0.595000000000000,
193000.000000000000000,-0.000097400000000,-0.000085400000000,-0.000073800000000,-0.000000027200000,0.000000014800000,0.000074800000000,0.000131000000000,-0.000009850000000,-0.000161000000000,0.150000000000000,0.000600000000000,-0.152000000000000,0.000092500000000,0.000757000000000,0.493000000000000,0.595000000000000,
193000.000000000000000,-0.000097300000000,-0.000085400000000,-0.000073700000000,-0.000000027000000,0.000000003690000,0.000074800000000,0.000131000000000,-0.000009760000000,-0.000161000000000,0.150000000000000,0.000600000000000,-0.153000000000000,0.000084000000000,0.000748000000000,0.493000000000000,0.596000000000000,
193000.000000000000000,-0.000097400000000,-0.000085400000000,-0.000073800000000,-0.000000027600000,0.000000015600000,0.000074900000000,0.000131000000000,-0.000009770000000,-0.000161000000000,0.150000000000000,0.000600000000000,-0.153000000000000,0.000086900000000,0.000749000000000,0.493000000000000,0.596000000000000,
193000.000000000000000,-0.000097500000000,-0.000085500000000,-0.000073800000000,-0.000000028000000,0.000000030700000,0.000074900000000,0.000131000000000,-0.000009860000000,-0.000161000000000,0.150000000000000,0.000601000000000,-0.153000000000000,0.000095000000000,0.000755000000000,0.494000000000000,0.596000000000000,
193000.000000000000000,-0.000097600000000,-0.000085600000000,-0.000073900000000,-0.000000027700000,0.000000027700000,0.000074900000000,0.000131000000000,-0.000009930000000,-0.000162000000000,0.150000000000000,0.000601000000000,-0.153000000000000,0.000096700000000,0.000759000000000,0.494000000000000,0.597000000000000,
193000.000000000000000,-0.000097600000000,-0.000085600000000,-0.000073900000000,-0.000000027000000,0.000000010100000,0.000074900000000,0.000131000000000,-0.000009930000000,-0.000162000000000,0.151000000000000,0.000601000000000,-0.153000000000000,0.000091300000000,0.000757000000000,0.494000000000000,0.597000000000000,
193000.000000000000000,-0.000097600000000,-0.000085600000000,-0.000073900000000,-0.000000026600000,0.000000000208000,0.000074900000000,0.000131000000000,-0.000009910000000,-0.000162000000000,0.151000000000000,0.000601000000000,-0.154000000000000,0.000087500000000,0.000754000000000,0.494000000000000,0.597000000000000,
193000.000000000000000,-0.000097600000000,-0.000085600000000,-0.000073900000000,-0.000000027300000,0.000000014300000,0.000074900000000,0.000131000000000,-0.000009940000000,-0.000162000000000,0.151000000000000,0.000602000000000,-0.154000000000000,0.000091800000000,0.000756000000000,0.495000000000000,0.598000000000000,
193000.000000000000000,-0.000098000000000,-0.000086000000000,-0.000074300000000,-0.000000028700000,-0.000000003670000,0.000074900000000,0.000131000000000,-0.000010300000000,-0.000162000000000,0.151000000000000,0.000604000000000,-0.154000000000000,0.000090700000000,0.000756000000000,0.495000000000000,0.598000000000000,
193000.000000000000000,-0.000098100000000,-0.000086100000000,-0.000074400000000,-0.000000028100000,0.000000062900000,0.000074900000000,0.000131000000000,-0.000010400000000,-0.000162000000000,0.151000000000000,0.000606000000000,-0.154000000000000,0.000117000000000,0.000793000000000,0.495000000000000,0.598000000000000,
194000.000000000000000,-0.000098000000000,-0.000086000000000,-0.000074300000000,-0.000000024700000,0.000000011600000,0.000075000000000,0.000131000000000,-0.000010200000000,-0.000162000000000,0.152000000000000,0.000604000000000,-0.154000000000000,0.000113000000000,0.000762000000000,0.495000000000000,0.599000000000000,
194000.000000000000000,-0.000098100000000,-0.000086000000000,-0.000074300000000,-0.000000030300000,0.000000068500000,0.000075000000000,0.000131000000000,-0.000010300000000,-0.000162000000000,0.152000000000000,0.000605000000000,-0.154000000000000,0.000120000000000,0.000782000000000,0.496000000000000,0.599000000000000,
194000.000000000000000,-0.000097900000000,-0.000085900000000,-0.000074100000000,-0.000000030300000,0.000000056700000,0.000075000000000,0.000132000000000,-0.000010100000000,-0.000162000000000,0.152000000000000,0.000603000000000,-0.155000000000000,0.000108000000000,0.000775000000000,0.496000000000000,0.599000000000000,
194000.000000000000000,-0.000098000000000,-0.000085900000000,-0.000074200000000,-0.000000028000000,0.000000019600000,0.000075000000000,0.000132000000000,-0.000010100000000,-0.000162000000000,0.152000000000000,0.000604000000000,-0.155000000000000,0.000095100000000,0.000756000000000,0.496000000000000,0.600000000000000,
194000.000000000000000,-0.000098100000000,-0.000086000000000,-0.000074200000000,-0.000000026400000,0.000000007680000,0.000075000000000,0.000132000000000,-0.000010200000000,-0.000162000000000,0.152000000000000,0.000604000000000,-0.155000000000000,0.000097600000000,0.000755000000000,0.496000000000000,0.600000000000000,
194000.000000000000000,-0.000098300000000,-0.000086200000000,-0.000074500000000,-0.000000025900000,0.000000019600000,0.000075000000000,0.000132000000000,-0.000010400000000,-0.000162000000000,0.152000000000000,0.000606000000000,-0.155000000000000,0.000111000000000,0.000763000000000,0.497000000000000,0.600000000000000,
194000.000000000000000,-0.000098400000000,-0.000086300000000,-0.000074500000000,-0.000000024300000,0.000000007370000,0.000075100000000,0.000132000000000,-0.000010500000000,-0.000162000000000,0.153000000000000,0.000607000000000,-0.155000000000000,0.000111000000000,0.000760000000000,0.497000000000000,0.601000000000000,
194000.000000000000000,-0.000098300000000,-0.000086200000000,-0.000074400000000,-0.000000030200000,0.000000061500000,0.000075100000000,0.000132000000000,-0.000010400000000,-0.000162000000000,0.153000000000000,0.000606000000000,-0.156000000000000,0.000116000000000,0.000785000000000,0.497000000000000,0.601000000000000,
194000.000000000000000,-0.000098300000000,-0.000086100000000,-0.000074300000000,-0.000000028300000,0.000000029100000,0.000075100000000,0.000132000000000,-0.000010300000000,-0.000162000000000,0.153000000000000,0.000605000000000,-0.156000000000000,0.000104000000000,0.000768000000000,0.497000000000000,0.601000000000000,
194000.000000000000000,-0.000098300000000,-0.000086200000000,-0.000074300000000,-0.000000029500000,0.000000057400000,0.000075100000000,0.000132000000000,-0.000010300000000,-0.000162000000000,0.153000000000000,0.000606000000000,-0.156000000000000,0.000112000000000,0.000778000000000,0.498000000000000,0.602000000000000,
195000.000000000000000,-0.000098500000000,-0.000086300000000,-0.000074500000000,-0.000000028700000,0.000000062800000,0.000075100000000,0.000132000000000,-0.000010400000000,-0.000163000000000,0.153000000000000,0.000607000000000,-0.156000000000000,0.000120000000000,0.000777000000000,0.498000000000000,0.602000000000000,
195000.000000000000000,-0.000098500000000,-0.000086400000000,-0.000074500000000,-0.000000026600000,0.000000032600000,0.000075100000000,0.000132000000000,-0.000010500000000,-0.000163000000000,0.154000000000000,0.000607000000000,-0.156000000000000,0.000114000000000,0.000764000000000,0.498000000000000,0.602000000000000,
195000.000000000000000,-0.000098500000000,-0.000086300000000,-0.000074500000000,-0.000000026900000,0.000000025600000,0.000075100000000,0.000132000000000,-0.000010400000000,-0.000163000000000,0.154000000000000,0.000607000000000,-0.156000000000000,0.000107000000000,0.000768000000000,0.498000000000000,0.603000000000000,
195000.000000000000000,-0.000098600000000,-0.000086400000000,-0.000074500000000,-0.000000028200000,0.000000031200000,0.000075100000000,0.000132000000000,-0.000010400000000,-0.000163000000000,0.154000000000000,0.000607000000000,-0.157000000000000,0.000105000000000,0.000775000000000,0.499000000000000,0.603000000000000,
195000.000000000000000,-0.000098600000000,-0.000086400000000,-0.000074500000000,-0.000000025900000,-0.000000000465000,0.000075200000000,0.000132000000000,-0.000010400000000,-0.000163000000000,0.154000000000000,0.000607000000000,-0.157000000000000,0.000101000000000,0.000758000000000,0.499000000000000,0.603000000000000,
195000.000000000000000,-0.000098700000000,-0.000086500000000,-0.000074600000000,-0.000000028600000,0.000000056200000,0.000075200000000,0.000132000000000,-0.000010500000000,-0.000163000000000,0.154000000000000,0.000608000000000,-0.157000000000000,0.000120000000000,0.000783000000000,0.499000000000000,0.604000000000000,
195000.000000000000000,-0.000098700000000,-0.000086500000000,-0.000074600000000,-0.000000027500000,0.000000039300000,0.000075200000000,0.000132000000000,-0.000010500000000,-0.000163000000000,0.154000000000000,0.000608000000000,-0.157000000000000,0.000115000000000,0.000771000000000,0.499000000000000,0.604000000000000,
195000.000000000000000,-0.000098700000000,-0.000086400000000,-0.000074500000000,-0.000000026500000,0.000000013800000,0.000075200000000,0.000132000000000,-0.000010400000000,-0.000163000000000,0.155000000000000,0.000607000000000,-0.157000000000000,0.000102000000000,0.000758000000000,0.500000000000000,0.604000000000000,
195000.000000000000000,-0.000098700000000,-0.000086400000000,-0.000074500000000,-0.000000029400000,0.000000050200000,0.000075200000000,0.000132000000000,-0.000010400000000,-0.000163000000000,0.155000000000000,0.000607000000000,-0.158000000000000,0.000108000000000,0.000777000000000,0.500000000000000,0.605000000000000,
195000.000000000000000,-0.000098800000000,-0.000086500000000,-0.000074600000000,-0.000000028400000,0.000000036700000,0.000075200000000,0.000132000000000,-0.000010500000000,-0.000163000000000,0.155000000000000,0.000608000000000,-0.158000000000000,0.000108000000000,0.000769000000000,0.500000000000000,0.605000000000000,
196000.000000000000000,-0.000098900000000,-0.000086700000000,-0.000074700000000,-0.000000026500000,0.000000023000000,0.000075200000000,0.000132000000000,-0.000010600000000,-0.000163000000000,0.155000000000000,0.000609000000000,-0.158000000000000,0.000112000000000,0.000764000000000,0.500000000000000,0.605000000000000,
196000.000000000000000,-0.000099000000000,-0.000086700000000,-0.000074700000000,-0.000000028200000,0.000000043400000,0.000075300000000,0.000132000000000,-0.000010600000000,-0.000163000000000,0.155000000000000,0.000609000000000,-0.158000000000000,0.000116000000000,0.000778000000000,0.501000000000000,0.606000000000000,
196000.000000000000000,-0.000099000000000,-0.000086700000000,-0.000074700000000,-0.000000026200000,0.000000007780000,0.000075300000000,0.000132000000000,-0.000010600000000,-0.000163000000000,0.156000000000000,0.000609000000000,-0.158000000000000,0.000105000000000,0.000764000000000,0.501000000000000,0.606000000000000,
196000.000000000000000,-0.000099000000000,-0.000086700000000,-0.000074700000000,-0.000000026900000,0.000000019200000,0.000075300000000,0.000132000000000,-0.000010600000000,-0.000163000000000,0.156000000000000,0.000609000000000,-0.159000000000000,0.000108000000000,0.000769000000000,0.501000000000000,0.606000000000000,
196000.000000000000000,-0.000099100000000,-0.000086800000000,-0.000074800000000,-0.000000029900000,0.000000074900000,0.000075300000000,0.000132000000000,-0.000010700000000,-0.000163000000000,0.156000000000000,0.000610000000000,-0.159000000000000,0.000124000000000,0.000792000000000,0.501000000000000,0.607000000000000,
196000.000000000000000,-0.000099100000000,-0.000086800000000,-0.000074800000000,-0.000000027700000,0.000000049900000,0.000075300000000,0.000132000000000,-0.000010700000000,-0.000163000000000,0.156000000000000,0.000610000000000,-0.159000000000000,0.000121000000000,0.000774000000000,0.501000000000000,0.607000000000000,
196000.000000000000000,-0.000099100000000,-0.000086800000000,-0.000074800000000,-0.000000026900000,0.000000031400000,0.000075300000000,0.000132000000000,-0.000010600000000,-0.000163000000000,0.156000000000000,0.000610000000000,-0.159000000000000,0.000112000000000,0.000765000000000,0.502000000000000,0.607000000000000,
196000.000000000000000,-0.000099100000000,-0.000086700000000,-0.000074700000000,-0.000000027500000,0.000000025500000,0.000075300000000,0.000132000000000,-0.000010600000000,-0.000163000000000,0.157000000000000,0.000609000000000,-0.159000000000000,0.000104000000000,0.000766000000000,0.502000000000000,0.608000000000000,
196000.000000000000000,-0.000099200000000,-0.000086800000000,-0.000074700000000,-0.000000026900000,0.000000011900000,0.000075400000000,0.000132000000000,-0.000010600000000,-0.000163000000000,0.157000000000000,0.000610000000000,-0.159000000000000,0.000103000000000,0.000761000000000,0.502000000000000,0.608000000000000,
196000.000000000000000,-0.000099300000000,-0.000087000000000,-0.000074900000000,-0.000000027900000,0.000000042900000,0.000075400000000,0.000132000000000,-0.000010800000000,-0.000163000000000,0.157000000000000,0.000611000000000,-0.160000000000000,0.000118000000000,0.000779000000000,0.502000000000000,0.608000000000000,
197000.000000000000000,-0.000099500000000,-0.000087000000000,-0.000075000000000,-0.000000028600000,0.000000062100000,0.000075400000000,0.000132000000000,-0.000010800000000,-0.000164000000000,0.157000000000000,0.000612000000000,-0.160000000000000,0.000127000000000,0.000791000000000,0.503000000000000,0.609000000000000,
197000.000000000000000,-0.000099400000000,-0.000087000000000,-0.000074900000000,-0.000000025900000,0.000000019300000,0.000075400000000,0.000132000000000,-0.000010800000000,-0.000164000000000,0.157000000000000,0.000612000000000,-0.160000000000000,0.000115000000000,0.000771000000000,0.503000000000000,0.609000000000000,
197000.000000000000000,-0.000099400000000,-0.000087000000000,-0.000074900000000,-0.000000027000000,0.000000021200000,0.000075400000000,0.000132000000000,-0.000010700000000,-0.000164000000000,0.157000000000000,0.000611000000000,-0.160000000000000,0.000108000000000,0.000771000000000,0.503000000000000,0.609000000000000,
197000.000000000000000,-0.000099400000000,-0.000087000000000,-0.000074900000000,-0.000000027500000,0.000000028100000,0.000075400000000,0.000132000000000,-0.000010700000000,-0.000164000000000,0.158000000000000,0.000611000000000,-0.160000000000000,0.000109000000000,0.000770000000000,0.503000000000000,0.610000000000000,
197000.000000000000000,-0.000099500000000,-0.000087000000000,-0.000074900000000,-0.000000028000000,0.000000033700000,0.000075400000000,0.000132000000000,-0.000010800000000,-0.000164000000000,0.158000000000000,0.000611000000000,-0.161000000000000,0.000111000000000,0.000767000000000,0.504000000000000,0.610000000000000,
197000.000000000000000,-0.000099500000000,-0.000087100000000,-0.000074900000000,-0.000000028700000,0.000000047200000,0.000075500000000,0.000132000000000,-0.000010800000000,-0.000164000000000,0.158000000000000,0.000612000000000,-0.161000000000000,0.000114000000000,0.000773000000000,0.504000000000000,0.610000000000000,
197000.000000000000000,-0.000099500000000,-0.000087100000000,-0.000074900000000,-0.000000027100000,0.000000023800000,0.000075500000000,0.000132000000000,-0.000010800000000,-0.000164000000000,0.158000000000000,0.000612000000000,-0.161000000000000,0.000108000000000,0.000765000000000,0.504000000000000,0.611000000000000,
197000.000000000000000,-0.000099600000000,-0.000087100000000,-0.000074900000000,-0.000000026500000,0.000000014800000,0.000075500000000,0.000132000000000,-0.000010800000000,-0.000164000000000,0.158000000000000,0.000612000000000,-0.161000000000000,0.000106000000000,0.000765000000000,0.504000000000000,0.611000000000000,
197000.000000000000000,-0.000099700000000,-0.000087200000000,-0.000075100000000,-0.000000028100000,0.000000048700000,0.000075500000000,0.000132000000000,-0.000010900000000,-0.000164000000000,0.159000000000000,0.000613000000000,-0.161000000000000,0.000121000000000,0.000783000000000,0.505000000000000,0.611000000000000,
197000.000000000000000,-0.000099800000000,-0.000087300000000,-0.000075200000000,-0.000000027300000,0.000000042300000,0.000075500000000,0.000133000000000,-0.000011000000000,-0.000164000000000,0.159000000000000,0.000614000000000,-0.162000000000000,0.000123000000000,0.000780000000000,0.505000000000000,0.612000000000000,
198000.000000000000000,-0.000099800000000,-0.000087300000000,-0.000075100000000,-0.000000027300000,0.000000035500000,0.000075500000000,0.000133000000000,-0.000011000000000,-0.000164000000000,0.159000000000000,0.000614000000000,-0.162000000000000,0.000119000000000,0.000778000000000,0.505000000000000,0.612000000000000,
198000.000000000000000,-0.000099800000000,-0.000087300000000,-0.000075100000000,-0.000000027200000,0.000000024200000,0.000075500000000,0.000133000000000,-0.000010900000000,-0.000164000000000,0.159000000000000,0.000613000000000,-0.162000000000000,0.000112000000000,0.000774000000000,0.505000000000000,0.612000000000000,
198000.000000000000000,-0.000099800000000,-0.000087300000000,-0.000075100000000,-0.000000026800000,0.000000019100000,0.000075600000000,0.000133000000000,-0.000010900000000,-0.000164000000000,0.159000000000000,0.000613000000000,-0.162000000000000,0.000109000000000,0.000769000000000,0.506000000000000,0.613000000000000,
198000.000000000000000,-0.000099900000000,-0.000087400000000,-0.000075200000000,-0.000000027900000,0.000000049000000,0.000075600000000,0.000133000000000,-0.000011000000000,-0.000164000000000,0.159000000000000,0.000614000000000,-0.162000000000000,0.000121000000000,0.000780000000000,0.506000000000000,0.613000000000000,
198000.000000000000000,-0.000100000000000,-0.000087400000000,-0.000075200000000,-0.000000028400000,0.000000054500000,0.000075600000000,0.000133000000000,-0.000011000000000,-0.000164000000000,0.160000000000000,0.000614000000000,-0.162000000000000,0.000123000000000,0.000779000000000,0.506000000000000,0.613000000000000,
198000.000000000000000,-0.000100000000000,-0.000087400000000,-0.000075100000000,-0.000000027500000,0.000000035700000,0.000075600000000,0.000133000000000,-0.000011000000000,-0.000164000000000,0.160000000000000,0.000614000000000,-0.163000000000000,0.000114000000000,0.000771000000000,0.506000000000000,0.614000000000000,
198000.000000000000000,-0.000100000000000,-0.000087400000000,-0.000075100000000,-0.000000027000000,0.000000017300000,0.000075600000000,0.000133000000000,-0.000010900000000,-0.000164000000000,0.160000000000000,0.000614000000000,-0.163000000000000,0.000106000000000,0.000764000000000,0.507000000000000,0.614000000000000,
198000.000000000000000,-0.000100000000000,-0.000087500000000,-0.000075200000000,-0.000000025200000,0.000000017000000,0.000075600000000,0.000133000000000,-0.000011100000000,-0.000164000000000,0.160000000000000,0.000614000000000,-0.163000000000000,0.000106000000000,0.000762000000000,0.507000000000000,0.614000000000000,
198000.000000000000000,-0.000099900000000,-0.000087300000000,-0.000075000000000,-0.000000025800000,0.000000013100000,0.000075600000000,0.000133000000000,-0.000010900000000,-0.000164000000000,0.160000000000000,0.000613000000000,-0.163000000000000,0.000103000000000,0.000762000000000,0.507000000000000,0.615000000000000,
198000.000000000000000,-0.000100000000000,-0.000087400000000,-0.000075100000000,-0.000000023500000,-0.000000026500000,0.000075600000000,0.000133000000000,-0.000010900000000,-0.000164000000000,0.161000000000000,0.000614000000000,-0.163000000000000,0.000091700000000,0.000739000000000,0.507000000000000,0.615000000000000,
199000.000000000000000,-0.000100000000000,-0.000087300000000,-0.000075000000000,-0.000000031100000,0.000000059100000,0.000075700000000,0.000133000000000,-0.000010800000000,-0.000164000000000,0.161000000000000,0.000613000000000,-0.163000000000000,0.000105000000000,0.000774000000000,0.508000000000000,0.615000000000000,
199000.000000000000000,-0.000100000000000,-0.000087400000000,-0.000075100000000,-0.000000029200000,0.000000045600000,0.000075700000000,0.000133000000000,-0.000010900000000,-0.000164000000000,0.161000000000000,0.000614000000000,-0.164000000000000,0.000103000000000,0.000764000000000,0.508000000000000,0.616000000000000,
199000.000000000000000,-0.000099900000000,-0.000087300000000,-0.000074900000000,-0.000000022500000,-0.000000060500000,0.000075700000000,0.000133000000000,-0.000010700000000,-0.000164000000000,0.161000000000000,0.000612000000000,-0.164000000000000,0.000075300000000,0.000713000000000,0.508000000000000,0.616000000000000,
199000.000000000000000,-0.000100000000000,-0.000087300000000,-0.000075000000000,-0.000000027300000,0.000000006370000,0.000075700000000,0.000133000000000,-0.000010800000000,-0.000164000000000,0.161000000000000,0.000613000000000,-0.164000000000000,0.000090200000000,0.000752000000000,0.508000000000000,0.616000000000000,
199000.000000000000000,-0.000100000000000,-0.000087400000000,-0.000075000000000,-0.000000029900000,0.000000042200000,0.000075700000000,0.000133000000000,-0.000010800000000,-0.000164000000000,0.161000000000000,0.000613000000000,-0.164000000000000,0.000102000000000,0.000774000000000,0.509000000000000,0.617000000000000,
199000.000000000000000,-0.000100000000000,-0.000087600000000,-0.000075300000000,-0.000000024800000,0.000000002440000,0.000075700000000,0.000133000000000,-0.000011000000000,-0.000165000000000,0.162000000000000,0.000615000000000,-0.164000000000000,0.000104000000000,0.000760000000000,0.509000000000000,0.617000000000000,
199000.000000000000000,-0.000100000000000,-0.000087700000000,-0.000075300000000,-0.000000028200000,0.000000045100000,0.000075700000000,0.000133000000000,-0.000011000000000,-0.000165000000000,0.162000000000000,0.000615000000000,-0.165000000000000,0.000116000000000,0.000782000000000,0.509000000000000,0.617000000000000,
199000.000000000000000,-0.000100000000000,-0.000087700000000,-0.000075300000000,-0.000000024700000,-0.000000006240000,0.000075800000000,0.000133000000000,-0.000011100000000,-0.000165000000000,0.162000000000000,0.000616000000000,-0.165000000000000,0.000101000000000,0.000758000000000,0.509000000000000,0.618000000000000,
199000.000000000000000,-0.000100000000000,-0.000087700000000,-0.000075300000000,-0.000000023700000,-0.000000029500000,0.000075800000000,0.000133000000000,-0.000011000000000,-0.000165000000000,0.162000000000000,0.000615000000000,-0.165000000000000,0.000091200000000,0.000746000000000,0.510000000000000,0.618000000000000,
199000.000000000000000,-0.000100000000000,-0.000087700000000,-0.000075200000000,-0.000000030600000,0.000000053000000,0.000075800000000,0.000133000000000,-0.000011000000000,-0.000165000000000,0.162000000000000,0.000615000000000,-0.165000000000000,0.000109000000000,0.000779000000000,0.510000000000000,0.618000000000000,
200000.000000000000000,-0.000100000000000,-0.000087700000000,-0.000075200000000,-0.000000027900000,0.000000031200000,0.000075800000000,0.000133000000000,-0.000011000000000,-0.000165000000000,0.163000000000000,0.000615000000000,-0.165000000000000,0.000107000000000,0.000764000000000,0.510000000000000,0.619000000000000,
200000.000000000000000,-0.000101000000000,-0.000087700000000,-0.000075300000000,-0.000000025500000,0.000000009710000,0.000075800000000,0.000133000000000,-0.000011000000000,-0.000165000000000,0.163000000000000,0.000616000000000,-0.166000000000000,0.000102000000000,0.000751000000000,0.510000000000000,0.619000000000000,
200000.000000000000000,-0.000100000000000,-0.000087700000000,-0.000075200000000,-0.000000028900000,0.000000034800000,0.000075800000000,0.000133000000000,-0.000011000000000,-0.000165000000000,0.163000000000000,0.000615000000000,-0.166000000000000,0.000101000000000,0.000762000000000,0.510000000000000,0.619000000000000,
200000.000000000000000,-0.000100000000000,-0.000087700000000,-0.000075200000000,-0.000000028200000,0.000000020700000,0.000075800000000,0.000133000000000,-0.000011000000000,-0.000165000000000,0.163000000000000,0.000615000000000,-0.166000000000000,0.000094900000000,0.000756000000000,0.511000000000000,0.620000000000000,
200000.000000000000000,-0.000101000000000,-0.000087800000000,-0.000075300000000,-0.000000024300000,-0.000000011700000,0.000075900000000,0.000133000000000,-0.000011100000000,-0.000165000000000,0.163000000000000,0.000616000000000,-0.166000000000000,0.000094200000000,0.000742000000000,0.511000000000000,0.620000000000000,
200000.000000000000000,-0.000101000000000,-0.000087900000000,-0.000075400000000,-0.000000028800000,0.000000038300000,0.000075900000000,0.000133000000000,-0.000011100000000,-0.000165000000000,0.164000000000000,0.000617000000000,-0.166000000000000,0.000107000000000,0.000767000000000,0.511000000000000,0.620000000000000,
200000.000000000000000,-0.000101000000000,-0.000087900000000,-0.000075400000000,-0.000000028800000,0.000000033300000,0.000075900000000,0.000133000000000,-0.000011100000000,-0.000165000000000,0.164000000000000,0.000617000000000,-0.167000000000000,0.000107000000000,0.000768000000000,0.511000000000000,0.621000000000000,
200000.000000000000000,-0.000101000000000,-0.000088000000000,-0.000075500000000,-0.000000025600000,-0.000000009880000,0.000075900000000,0.000133000000000,-0.000011200000000,-0.000165000000000,0.164000000000000,0.000617000000000,-0.167000000000000,0.000096600000000,0.000755000000000,0.512000000000000,0.621000000000000,
200000.000000000000000,-0.000101000000000,-0.000088000000000,-0.000075400000000,-0.000000026400000,-0.000000005230000,0.000075900000000,0.000133000000000,-0.000011200000000,-0.000165000000000,0.164000000000000,0.000617000000000,-0.167000000000000,0.000096200000000,0.000758000000000,0.512000000000000,0.621000000000000,
200000.000000000000000,-0.000101000000000,-0.000088000000000,-0.000075500000000,-0.000000027800000,0.000000020000000,0.000075900000000,0.000133000000000,-0.000011200000000,-0.000165000000000,0.164000000000000,0.000618000000000,-0.167000000000000,0.000106000000000,0.000769000000000,0.512000000000000,0.622000000000000,
201000.000000000000000,-0.000101000000000,-0.000088100000000,-0.000075600000000,-0.000000025300000,-0.000000006390000,0.000075900000000,0.000133000000000,-0.000011300000000,-0.000165000000000,0.165000000000000,0.000618000000000,-0.167000000000000,0.000102000000000,0.000756000000000,0.512000000000000,0.622000000000000,
201000.000000000000000,-0.000101000000000,-0.000088100000000,-0.000075500000000,-0.000000028600000,0.000000031500000,0.000076000000000,0.000133000000000,-0.000011200000000,-0.000165000000000,0.165000000000000,0.000618000000000,-0.167000000000000,0.000108000000000,0.000774000000000,0.513000000000000,0.622000000000000,
201000.000000000000000,-0.000101000000000,-0.000088100000000,-0.000075500000000,-0.000000027300000,0.000000016100000,0.000076000000000,0.000133000000000,-0.000011200000000,-0.000165000000000,0.165000000000000,0.000618000000000,-0.168000000000000,0.000103000000000,0.000766000000000,0.513000000000000,0.623000000000000,
201000.000000000000000,-0.000101000000000,-0.000088100000000,-0.000075500000000,-0.000000026300000,0.000000007240000,0.000076000000000,0.000133000000000,-0.000011200000000,-0.000165000000000,0.165000000000000,0.000618000000000,-0.168000000000000,0.000101000000000,0.000758000000000,0.513000000000000,0.623000000000000,
201000.000000000000000,-0.000101000000000,-0.000088200000000,-0.000075600000000,-0.000000028400000,0.000000038600000,0.000076000000000,0.000133000000000,-0.000011300000000,-0.000165000000000,0.165000000000000,0.000619000000000,-0.168000000000000,0.000110000000000,0.000768000000000,0.513000000000000,0.623000000000000,
201000.000000000000000,-0.000101000000000,-0.000088200000000,-0.000075500000000,-0.000000028500000,0.000000030300000,0.000076000000000,0.000133000000000,-0.000011200000000,-0.000165000000000,0.165000000000000,0.000618000000000,-0.168000000000000,0.000104000000000,0.000760000000000,0.514000000000000,0.624000000000000,
201000.000000000000000,-0.000101000000000,-0.000088100000000,-0.000075500000000,-0.000000026700000,0.000000006710000,0.000076000000000,0.000134000000000,-0.000011200000000,-0.000165000000000,0.166000000000000,0.000618000000000,-0.168000000000000,0.000096000000000,0.000750000000000,0.514000000000000,0.624000000000000,
201000.000000000000000,-0.000101000000000,-0.000088200000000,-0.000075500000000,-0.000000026500000,0.000000007750000,0.000076000000000,0.000134000000000,-0.000011200000000,-0.000165000000000,0.166000000000000,0.000619000000000,-0.169000000000000,0.000098300000000,0.000753000000000,0.514000000000000,0.624000000000000,
201000.000000000000000,-0.000101000000000,-0.000088300000000,-0.000075600000000,-0.000000029700000,0.000000049700000,0.000076000000000,0.000134000000000,-0.000011300000000,-0.000166000000000,0.166000000000000,0.000619000000000,-0.169000000000000,0.000110000000000,0.000773000000000,0.514000000000000,0.625000000000000,
201000.000000000000000,-0.000101000000000,-0.000088400000000,-0.000075700000000,-0.000000026900000,0.000000024000000,0.000076100000000,0.000134000000000,-0.000011400000000,-0.000166000000000,0.166000000000000,0.000620000000000,-0.169000000000000,0.000109000000000,0.000763000000000,0.515000000000000,0.625000000000000,
202000.000000000000000,-0.000101000000000,-0.000088400000000,-0.000075700000000,-0.000000025600000,-0.000000000738000,0.000076100000000,0.000134000000000,-0.000011400000000,-0.000166000000000,0.166000000000000,0.000620000000000,-0.169000000000000,0.000101000000000,0.000755000000000,0.515000000000000,0.625000000000000,
202000.000000000000000,-0.000101000000000,-0.000088400000000,-0.000075700000000,-0.000000027900000,0.000000012900000,0.000076100000000,0.000134000000000,-0.000011300000000,-0.000166000000000,0.167000000000000,0.000620000000000,-0.169000000000000,0.000099100000000,0.000764000000000,0.515000000000000,0.626000000000000,
202000.000000000000000,-0.000101000000000,-0.000088400000000,-0.000075700000000,-0.000000026200000,-0.000000003680000,0.000076100000000,0.000134000000000,-0.000011400000000,-0.000166000000000,0.167000000000000,0.000620000000000,-0.170000000000000,0.000099200000000,0.000758000000000,0.515000000000000,0.626000000000000,
202000.000000000000000,-0.000102000000000,-0.000088500000000,-0.000075800000000,-0.000000026900000,0.000000011900000,0.000076100000000,0.000134000000000,-0.000011500000000,-0.000166000000000,0.167000000000000,0.000621000000000,-0.170000000000000,0.000106000000000,0.000765000000000,0.516000000000000,0.626000000000000,
202000.000000000000000,-0.000102000000000,-0.000088500000000,-0.000075800000000,-0.000000028800000,0.000000032600000,0.000076100000000,0.000134000000000,-0.000011500000000,-0.000166000000000,0.167000000000000,0.000621000000000,-0.170000000000000,0.000111000000000,0.000774000000000,0.516000000000000,0.627000000000000,
202000.000000000000000,-0.000102000000000,-0.000088500000000,-0.000075800000000,-0.000000025900000,-0.000000007010000,0.000076100000000,0.000134000000000,-0.000011500000000,-0.000166000000000,0.167000000000000,0.000621000000000,-0.170000000000000,0.000098700000000,0.000756000000000,0.516000000000000,0.627000000000000,
202000.000000000000000,-0.000102000000000,-0.000088500000000,-0.000075800000000,-0.000000026000000,-0.000000007830000,0.000076200000000,0.000134000000000,-0.000011400000000,-0.000166000000000,0.168000000000000,0.000621000000000,-0.170000000000000,0.000095400000000,0.000755000000000,0.516000000000000,0.627000000000000,
202000.000000000000000,-0.000102000000000,-0.000088600000000,-0.000075800000000,-0.000000027800000,0.000000020300000,0.000076200000000,0.000134000000000,-0.000011500000000,-0.000166000000000,0.168000000000000,0.000621000000000,-0.171000000000000,0.000105000000000,0.000765000000000,0.517000000000000,0.628000000000000,
202000.000000000000000,-0.000102000000000,-0.000088700000000,-0.000075900000000,-0.000000027600000,0.000000026800000,0.000076200000000,0.000134000000000,-0.000011500000000,-0.000166000000000,0.168000000000000,0.000622000000000,-0.171000000000000,0.000109000000000,0.000764000000000,0.517000000000000,0.628000000000000,
202000.000000000000000,-0.000102000000000,-0.000088700000000,-0.000075900000000,-0.000000027200000,0.000000021100000,0.000076200000000,0.000134000000000,-0.000011500000000,-0.000166000000000,0.168000000000000,0.000622000000000,-0.171000000000000,0.000107000000000,0.000760000000000,0.517000000000000,0.628000000000000,
203000.000000000000000,-0.000102000000000,-0.000088600000000,-0.000075800000000,-0.000000028500000,0.000000026700000,0.000076200000000,0.000134000000000,-0.000011500000000,-0.000166000000000,0.168000000000000,0.000621000000000,-0.171000000000000,0.000103000000000,0.000762000000000,0.517000000000000,0.629000000000000,
203000.000000000000000,-0.000102000000000,-0.000088600000000,-0.000075800000000,-0.000000027500000,0.000000010200000,0.000076200000000,0.000134000000000,-0.000011400000000,-0.000166000000000,0.168000000000000,0.000621000000000,-0.171000000000000,0.000096600000000,0.000753000000000,0.517000000000000,0.629000000000000,
203000.000000000000000,-0.000102000000000,-0.000088700000000,-0.000075900000000,-0.000000026600000,0.000000011500000,0.000076200000000,0.000134000000000,-0.000011500000000,-0.000166000000000,0.169000000000000,0.000622000000000,-0.171000000000000,0.000102000000000,0.000753000000000,0.518000000000000,0.629000000000000,
203000.000000000000000,-0.000102000000000,-0.000088800000000,-0.000075900000000,-0.000000028800000,0.000000039200000,0.000076300000000,0.000134000000000,-0.000011600000000,-0.000166000000000,0.169000000000000,0.000623000000000,-0.172000000000000,0.000110000000000,0.000768000000000,0.518000000000000,0.630000000000000,
203000.000000000000000,-0.000102000000000,-0.000088800000000,-0.000075900000000,-0.000000027300000,0.000000005170000,0.000076300000000,0.000134000000000,-0.000011600000000,-0.000166000000000,0.169000000000000,0.000623000000000,-0.172000000000000,0.000099500000000,0.000755000000000,0.518000000000000,0.630000000000000,
203000.000000000000000,-0.000102000000000,-0.000088900000000,-0.000076000000000,-0.000000026300000,0.000000007630000,0.000076300000000,0.000134000000000,-0.000011600000000,-0.000166000000000,0.169000000000000,0.000623000000000,-0.172000000000000,0.000100000000000,0.000762000000000,0.518000000000000,0.630000000000000,
203000.000000000000000,-0.000102000000000,-0.000088800000000,-0.000075900000000,-0.000000028000000,0.000000012900000,0.000076300000000,0.000134000000000,-0.000011500000000,-0.000166000000000,0.169000000000000,0.000622000000000,-0.172000000000000,0.000099900000000,0.000763000000000,0.519000000000000,0.631000000000000,
203000.000000000000000,-0.000102000000000,-0.000088900000000,-0.000076000000000,-0.000000026400000,0.000000015100000,0.000076300000000,0.000134000000000,-0.000011700000000,-0.000167000000000,0.170000000000000,0.000624000000000,-0.172000000000000,0.000107000000000,0.000764000000000,0.519000000000000,0.631000000000000,
203000.000000000000000,-0.000102000000000,-0.000089000000000,-0.000076100000000,-0.000000026300000,0.000000007000000,0.000076300000000,0.000134000000000,-0.000011700000000,-0.000167000000000,0.170000000000000,0.000624000000000,-0.173000000000000,0.000104000000000,0.000759000000000,0.519000000000000,0.631000000000000,
203000.000000000000000,-0.000102000000000,-0.000088900000000,-0.000076000000000,-0.000000028500000,0.000000017200000,0.000076300000000,0.000134000000000,-0.000011600000000,-0.000167000000000,0.170000000000000,0.000623000000000,-0.173000000000000,0.000101000000000,0.000763000000000,0.519000000000000,0.632000000000000,
204000.000000000000000,-0.000102000000000,-0.000089000000000,-0.000076000000000,-0.000000026900000,0.000000002280000,0.000076400000000,0.000134000000000,-0.000011700000000,-0.000167000000000,0.170000000000000,0.000624000000000,-0.173000000000000,0.000097900000000,0.000756000000000,0.520000000000000,0.632000000000000,
204000.000000000000000,-0.000102000000000,-0.000089000000000,-0.000076100000000,-0.000000025900000,-0.000000004440000,0.000076400000000,0.000134000000000,-0.000011700000000,-0.000167000000000,0.170000000000000,0.000624000000000,-0.173000000000000,0.000098800000000,0.000750000000000,0.520000000000000,0.632000000000000,
204000.000000000000000,-0.000102000000000,-0.000089100000000,-0.000076100000000,-0.000000028400000,0.000000032900000,0.000076400000000,0.000134000000000,-0.000011700000000,-0.000167000000000,0.171000000000000,0.000625000000000,-0.173000000000000,0.000110000000000,0.000766000000000,0.520000000000000,0.633000000000000,
204000.000000000000000,-0.000102000000000,-0.000089100000000,-0.000076100000000,-0.000000027300000,0.000000015600000,0.000076400000000,0.000134000000000,-0.000011700000000,-0.000167000000000,0.171000000000000,0.000625000000000,-0.174000000000000,0.000104000000000,0.000758000000000,0.520000000000000,0.633000000000000,
204000.000000000000000,-0.000102000000000,-0.000089100000000,-0.000076100000000,-0.000000025800000,-0.000000006100000,0.000076400000000,0.000134000000000,-0.000011700000000,-0.000167000000000,0.171000000000000,0.000624000000000,-0.174000000000000,0.000096400000000,0.000749000000000,0.521000000000000,0.633000000000000,
204000.000000000000000,-0.000102000000000,-0.000089200000000,-0.000076200000000,-0.000000027900000,0.000000025300000,0.000076400000000,0.000134000000000,-0.000011800000000,-0.000167000000000,0.171000000000000,0.000625000000000,-0.174000000000000,0.000105000000000,0.000762000000000,0.521000000000000,0.634000000000000,
204000.000000000000000,-0.000103000000000,-0.000089200000000,-0.000076200000000,-0.000000028500000,0.000000029600000,0.000076400000000,0.000134000000000,-0.000011800000000,-0.000167000000000,0.171000000000000,0.000625000000000,-0.174000000000000,0.000107000000000,0.000760000000000,0.521000000000000,0.634000000000000,
204000.000000000000000,-0.000103000000000,-0.000089200000000,-0.000076200000000,-0.000000027000000,0.000000014000000,0.000076400000000,0.000134000000000,-0.000011800000000,-0.000167000000000,0.171000000000000,0.000625000000000,-0.174000000000000,0.000103000000000,0.000753000000000,0.521000000000000,0.634000000000000,
204000.000000000000000,-0.000103000000000,-0.000089200000000,-0.000076100000000,-0.000000027700000,0.000000012900000,0.000076500000000,0.000134000000000,-0.000011700000000,-0.000167000000000,0.172000000000000,0.000625000000000,-0.174000000000000,0.000098100000000,0.000754000000000,0.522000000000000,0.635000000000000,
204000.000000000000000,-0.000103000000000,-0.000089100000000,-0.000076100000000,-0.000000027900000,0.000000007190000,0.000076500000000,0.000134000000000,-0.000011700000000,-0.000167000000000,0.172000000000000,0.000625000000000,-0.175000000000000,0.000094400000000,0.000753000000000,0.522000000000000,0.635000000000000,
205000.000000000000000,-0.000103000000000,-0.000089300000000,-0.000076200000000,-0.000000026600000,0.000000007890000,0.000076500000000,0.000134000000000,-0.000011800000000,-0.000167000000000,0.172000000000000,0.000626000000000,-0.175000000000000,0.000101000000000,0.000755000000000,0.522000000000000,0.635000000000000,
205000.000000000000000,-0.000103000000000,-0.000089400000000,-0.000076300000000,-0.000000028200000,0.000000030200000,0.000076500000000,0.000134000000000,-0.000011900000000,-0.000167000000000,0.172000000000000,0.000626000000000,-0.175000000000000,0.000109000000000,0.000765000000000,0.522000000000000,0.636000000000000,
205000.000000000000000,-0.000103000000000,-0.000089400000000,-0.000076300000000,-0.000000027800000,0.000000022500000,0.000076500000000,0.000134000000000,-0.000011900000000,-0.000167000000000,0.172000000000000,0.000627000000000,-0.175000000000000,0.000106000000000,0.000763000000000,0.522000000000000,0.636000000000000,
205000.000000000000000,-0.000103000000000,-0.000089400000000,-0.000076300000000,-0.000000025600000,-0.000000010400000,0.000076500000000,0.000135000000000,-0.000011900000000,-0.000167000000000,0.173000000000000,0.000626000000000,-0.175000000000000,0.000095700000000,0.000750000000000,0.523000000000000,0.636000000000000,
205000.000000000000000,-0.000103000000000,-0.000089400000000,-0.000076300000000,-0.000000026900000,0.000000003060000,0.000076500000000,0.000135000000000,-0.000011900000000,-0.000167000000000,0.173000000000000,0.000627000000000,-0.176000000000000,0.000098900000000,0.000757000000000,0.523000000000000,0.637000000000000,
205000.000000000000000,-0.000103000000000,-0.000089500000000,-0.000076400000000,-0.000000027800000,0.000000024200000,0.000076600000000,0.000135000000000,-0.000012000000000,-0.000167000000000,0.173000000000000,0.000627000000000,-0.176000000000000,0.000110000000000,0.000766000000000,0.523000000000000,0.637000000000000,
205000.000000000000000,-0.000103000000000,-0.000089500000000,-0.000076400000000,-0.000000027400000,0.000000020500000,0.000076600000000,0.000135000000000,-0.000012000000000,-0.000167000000000,0.173000000000000,0.000628000000000,-0.176000000000000,0.000110000000000,0.000763000000000,0.523000000000000,0.637000000000000,
205000.000000000000000,-0.000103000000000,-0.000089600000000,-0.000076400000000,-0.000000027300000,0.000000011300000,0.000076600000000,0.000135000000000,-0.000012000000000,-0.000167000000000,0.173000000000000,0.000628000000000,-0.176000000000000,0.000105000000000,0.000760000000000,0.524000000000000,0.637000000000000,
205000.000000000000000,-0.000103000000000,-0.000089600000000,-0.000076400000000,-0.000000027200000,0.000000004910000,0.000076600000000,0.000135000000000,-0.000012000000000,-0.000167000000000,0.174000000000000,0.000628000000000,-0.176000000000000,0.000101000000000,0.000758000000000,0.524000000000000,0.638000000000000,
205000.000000000000000,-0.000103000000000,-0.000089600000000,-0.000076500000000,-0.000000027100000,0.000000006460000,0.000076600000000,0.000135000000000,-0.000012000000000,-0.000168000000000,0.174000000000000,0.000628000000000,-0.177000000000000,0.000103000000000,0.000758000000000,0.524000000000000,0.638000000000000,
206000.000000000000000,-0.000103000000000,-0.000089700000000,-0.000076500000000,-0.000000027300000,0.000000023400000,0.000076600000000,0.000135000000000,-0.000012100000000,-0.000168000000000,0.174000000000000,0.000629000000000,-0.177000000000000,0.000112000000000,0.000765000000000,0.524000000000000,0.638000000000000,
206000.000000000000000,-0.000103000000000,-0.000089700000000,-0.000076500000000,-0.000000028500000,0.000000032200000,0.000076600000000,0.000135000000000,-0.000012100000000,-0.000168000000000,0.174000000000000,0.000629000000000,-0.177000000000000,0.000113000000000,0.000769000000000,0.525000000000000,0.639000000000000,
206000.000000000000000,-0.000103000000000,-0.000089700000000,-0.000076500000000,-0.000000027200000,0.000000007030000,0.000076700000000,0.000135000000000,-0.000012000000000,-0.000168000000000,0.174000000000000,0.000628000000000,-0.177000000000000,0.000101000000000,0.000757000000000,0.525000000000000,0.639000000000000,
206000.000000000000000,-0.000103000000000,-0.000089700000000,-0.000076500000000,-0.000000026600000,-0.000000002770000,0.000076700000000,0.000135000000000,-0.000012000000000,-0.000168000000000,0.175000000000000,0.000628000000000,-0.177000000000000,0.000097200000000,0.000751000000000,0.525000000000000,0.639000000000000,
206000.000000000000000,-0.000103000000000,-0.000089700000000,-0.000076500000000,-0.000000028300000,0.000000015900000,0.000076700000000,0.000135000000000,-0.000012000000000,-0.000168000000000,0.175000000000000,0.000629000000000,-0.178000000000000,0.000102000000000,0.000756000000000,0.525000000000000,0.640000000000000,
206000.000000000000000,-0.000103000000000,-0.000089800000000,-0.000076500000000,-0.000000028000000,0.000000021100000,0.000076700000000,0.000135000000000,-0.000012100000000,-0.000168000000000,0.175000000000000,0.000629000000000,-0.178000000000000,0.000106000000000,0.000758000000000,0.526000000000000,0.640000000000000,
206000.000000000000000,-0.000103000000000,-0.000089800000000,-0.000076500000000,-0.000000027200000,0.000000009970000,0.000076700000000,0.000135000000000,-0.000012100000000,-0.000168000000000,0.175000000000000,0.000629000000000,-0.178000000000000,0.000102000000000,0.000755000000000,0.526000000000000,0.640000000000000,
206000.000000000000000,-0.000103000000000,-0.000089800000000,-0.000076500000000,-0.000000027500000,0.000000009030000,0.000076700000000,0.000135000000000,-0.000012100000000,-0.000168000000000,0.175000000000000,0.000629000000000,-0.178000000000000,0.000099400000000,0.000756000000000,0.526000000000000,0.641000000000000,
206000.000000000000000,-0.000103000000000,-0.000089900000000,-0.000076600000000,-0.000000027400000,0.000000013300000,0.000076700000000,0.000135000000000,-0.000012100000000,-0.000168000000000,0.175000000000000,0.000630000000000,-0.178000000000000,0.000103000000000,0.000758000000000,0.526000000000000,0.641000000000000,
206000.000000000000000,-0.000104000000000,-0.000089900000000,-0.000076700000000,-0.000000027200000,0.000000016000000,0.000076700000000,0.000135000000000,-0.000012200000000,-0.000168000000000,0.176000000000000,0.000630000000000,-0.179000000000000,0.000107000000000,0.000757000000000,0.526000000000000,0.641000000000000,
207000.000000000000000,-0.000104000000000,-0.000090000000000,-0.000076700000000,-0.000000028200000,0.000000028200000,0.000076800000000,0.000135000000000,-0.000012200000000,-0.000168000000000,0.176000000000000,0.000631000000000,-0.179000000000000,0.000110000000000,0.000763000000000,0.527000000000000,0.642000000000000,
207000.000000000000000,-0.000104000000000,-0.000090000000000,-0.000076700000000,-0.000000027800000,0.000000016100000,0.000076800000000,0.000135000000000,-0.000012200000000,-0.000168000000000,0.176000000000000,0.000630000000000,-0.179000000000000,0.000105000000000,0.000759000000000,0.527000000000000,0.642000000000000,
207000.000000000000000,-0.000104000000000,-0.000090000000000,-0.000076700000000,-0.000000026900000,0.000000002970000,0.000076800000000,0.000135000000000,-0.000012200000000,-0.000168000000000,0.176000000000000,0.000630000000000,-0.179000000000000,0.000101000000000,0.000754000000000,0.527000000000000,0.642000000000000,
207000.000000000000000,-0.000104000000000,-0.000090100000000,-0.000076700000000,-0.000000028100000,0.000000025100000,0.000076800000000,0.000135000000000,-0.000012300000000,-0.000168000000000,0.176000000000000,0.000631000000000,-0.179000000000000,0.000110000000000,0.000765000000000,0.527000000000000,0.643000000000000,
207000.000000000000000,-0.000104000000000,-0.000090100000000,-0.000076800000000,-0.000000028200000,0.000000025900000,0.000076800000000,0.000135000000000,-0.000012300000000,-0.000168000000000,0.177000000000000,0.000632000000000,-0.179000000000000,0.000112000000000,0.000764000000000,0.528000000000000,0.643000000000000,
207000.000000000000000,-0.000104000000000,-0.000090200000000,-0.000076800000000,-0.000000027000000,0.000000012100000,0.000076800000000,0.000135000000000,-0.000012300000000,-0.000168000000000,0.177000000000000,0.000632000000000,-0.180000000000000,0.000108000000000,0.000761000000000,0.528000000000000,0.643000000000000,
207000.000000000000000,-0.000104000000000,-0.000090200000000,-0.000076800000000,-0.000000027100000,0.000000005810000,0.000076800000000,0.000135000000000,-0.000012300000000,-0.000168000000000,0.177000000000000,0.000632000000000,-0.180000000000000,0.000104000000000,0.000760000000000,0.528000000000000,0.644000000000000,
207000.000000000000000,-0.000104000000000,-0.000090200000000,-0.000076800000000,-0.000000027100000,0.000000005350000,0.000076900000000,0.000135000000000,-0.000012300000000,-0.000168000000000,0.177000000000000,0.000632000000000,-0.180000000000000,0.000104000000000,0.000760000000000,0.528000000000000,0.644000000000000,
207000.000000000000000,-0.000104000000000,-0.000090300000000,-0.000076900000000,-0.000000027400000,0.000000017700000,0.000076900000000,0.000135000000000,-0.000012400000000,-0.000169000000000,0.177000000000000,0.000633000000000,-0.180000000000000,0.000111000000000,0.000765000000000,0.529000000000000,0.644000000000000,
207000.000000000000000,-0.000104000000000,-0.000090300000000,-0.000076900000000,-0.000000027600000,0.000000015500000,0.000076900000000,0.000135000000000,-0.000012400000000,-0.000169000000000,0.178000000000000,0.000633000000000,-0.180000000000000,0.000109000000000,0.000762000000000,0.529000000000000,0.645000000000000,
208000.000000000000000,-0.000104000000000,-0.000090300000000,-0.000076800000000,-0.000000027400000,0.000000005160000,0.000076900000000,0.000135000000000,-0.000012300000000,-0.000169000000000,0.178000000000000,0.000632000000000,-0.181000000000000,0.000103000000000,0.000758000000000,0.529000000000000,0.645000000000000,
208000.000000000000000,-0.000104000000000,-0.000090300000000,-0.000076800000000,-0.000000026900000,-0.000000004300000,0.000076900000000,0.000135000000000,-0.000012300000000,-0.000169000000000,0.178000000000000,0.000632000000000,-0.181000000000000,0.000098400000000,0.000753000000000,0.529000000000000,0.645000000000000,
208000.000000000000000,-0.000104000000000,-0.000090300000000,-0.000076900000000,-0.000000027200000,0.000000006140000,0.000076900000000,0.000135000000000,-0.000012400000000,-0.000169000000000,0.178000000000000,0.000633000000000,-0.181000000000000,0.000104000000000,0.000756000000000,0.530000000000000,0.646000000000000,
208000.000000000000000,-0.000104000000000,-0.000090400000000,-0.000077000000000,-0.000000028500000,0.000000030700000,0.000076900000000,0.000135000000000,-0.000012500000000,-0.000169000000000,0.178000000000000,0.000634000000000,-0.181000000000000,0.000113000000000,0.000766000000000,0.530000000000000,0.646000000000000,
208000.000000000000000,-0.000104000000000,-0.000090500000000,-0.000077000000000,-0.000000027800000,0.000000020900000,0.000077000000000,0.000135000000000,-0.000012500000000,-0.000169000000000,0.179000000000000,0.000634000000000,-0.181000000000000,0.000110000000000,0.000761000000000,0.530000000000000,0.646000000000000,
208000.000000000000000,-0.000104000000000,-0.000090400000000,-0.000076900000000,-0.000000027000000,0.000000006980000,0.000077000000000,0.000135000000000,-0.000012400000000,-0.000169000000000,0.179000000000000,0.000633000000000,-0.182000000000000,0.000103000000000,0.000756000000000,0.530000000000000,0.647000000000000,
208000.000000000000000,-0.000104000000000,-0.000090500000000,-0.000076900000000,-0.000000027700000,0.000000013100000,0.000077000000000,0.000135000000000,-0.000012400000000,-0.000169000000000,0.179000000000000,0.000633000000000,-0.182000000000000,0.000104000000000,0.000757000000000,0.530000000000000,0.647000000000000,
208000.000000000000000,-0.000104000000000,-0.000090500000000,-0.000077000000000,-0.000000028000000,0.000000022100000,0.000077000000000,0.000135000000000,-0.000012500000000,-0.000169000000000,0.179000000000000,0.000634000000000,-0.182000000000000,0.000109000000000,0.000759000000000,0.531000000000000,0.647000000000000,
208000.000000000000000,-0.000104000000000,-0.000090600000000,-0.000077000000000,-0.000000028100000,0.000000028700000,0.000077000000000,0.000135000000000,-0.000012500000000,-0.000169000000000,0.179000000000000,0.000634000000000,-0.182000000000000,0.000113000000000,0.000762000000000,0.531000000000000,0.648000000000000,
208000.000000000000000,-0.000104000000000,-0.000090600000000,-0.000077000000000,-0.000000028400000,0.000000021800000,0.000077000000000,0.000135000000000,-0.000012500000000,-0.000169000000000,0.179000000000000,0.000634000000000,-0.182000000000000,0.000108000000000,0.000759000000000,0.531000000000000,0.648000000000000,
209000.000000000000000,-0.000104000000000,-0.000090600000000,-0.000077000000000,-0.000000027300000,0.000000005500000,0.000077000000000,0.000136000000000,-0.000012500000000,-0.000169000000000,0.180000000000000,0.000634000000000,-0.183000000000000,0.000101000000000,0.000754000000000,0.531000000000000,0.648000000000000,
209000.000000000000000,-0.000105000000000,-0.000090600000000,-0.000077100000000,-0.000000027000000,0.000000005910000,0.000077000000000,0.000136000000000,-0.000012500000000,-0.000169000000000,0.180000000000000,0.000635000000000,-0.183000000000000,0.000104000000000,0.000756000000000,0.532000000000000,0.649000000000000,
209000.000000000000000,-0.000105000000000,-0.000090700000000,-0.000077100000000,-0.000000028000000,0.000000022700000,0.000077100000000,0.000136000000000,-0.000012600000000,-0.000169000000000,0.180000000000000,0.000635000000000,-0.183000000000000,0.000111000000000,0.000763000000000,0.532000000000000,0.649000000000000,
209000.000000000000000,-0.000105000000000,-0.000090800000000,-0.000077200000000,-0.000000027600000,0.000000020400000,0.000077100000000,0.000136000000000,-0.000012600000000,-0.000169000000000,0.180000000000000,0.000636000000000,-0.183000000000000,0.000112000000000,0.000764000000000,0.532000000000000,0.649000000000000,
209000.000000000000000,-0.000105000000000,-0.000090800000000,-0.000077200000000,-0.000000026900000,0.000000004560000,0.000077100000000,0.000136000000000,-0.000012600000000,-0.000169000000000,0.180000000000000,0.000636000000000,-0.183000000000000,0.000105000000000,0.000758000000000,0.532000000000000,0.650000000000000,
209000.000000000000000,-0.000105000000000,-0.000090800000000,-0.000077200000000,-0.000000027200000,0.000000002840000,0.000077100000000,0.000136000000000,-0.000012600000000,-0.000169000000000,0.181000000000000,0.000636000000000,-0.184000000000000,0.000103000000000,0.000758000000000,0.533000000000000,0.650000000000000,
209000.000000000000000,-0.000105000000000,-0.000090800000000,-0.000077200000000,-0.000000027500000,0.000000009630000,0.000077100000000,0.000136000000000,-0.000012700000000,-0.000169000000000,0.181000000000000,0.000636000000000,-0.184000000000000,0.000108000000000,0.000760000000000,0.533000000000000,0.650000000000000,
209000.000000000000000,-0.000105000000000,-0.000090900000000,-0.000077300000000,-0.000000027700000,0.000000016500000,0.000077100000000,0.000136000000000,-0.000012700000000,-0.000169000000000,0.181000000000000,0.000637000000000,-0.184000000000000,0.000111000000000,0.000762000000000,0.533000000000000,0.651000000000000,
209000.000000000000000,-0.000105000000000,-0.000090900000000,-0.000077300000000,-0.000000027700000,0.000000015100000,0.000077100000000,0.000136000000000,-0.000012700000000,-0.000169000000000,0.181000000000000,0.000637000000000,-0.184000000000000,0.000110000000000,0.000763000000000,0.533000000000000,0.651000000000000,
209000.000000000000000,-0.000105000000000,-0.000090900000000,-0.000077300000000,-0.000000027400000,0.000000007290000,0.000077200000000,0.000136000000000,-0.000012700000000,-0.000169000000000,0.181000000000000,0.000637000000000,-0.184000000000000,0.000107000000000,0.000760000000000,0.533000000000000,0.651000000000000,
210000.000000000000000,-0.000105000000000,-0.000091000000000,-0.000077300000000,-0.000000027200000,0.000000009350000,0.000077200000000,0.000136000000000,-0.000012800000000,-0.000170000000000,0.182000000000000,0.000637000000000,-0.184000000000000,0.000108000000000,0.000761000000000,0.534000000000000,0.652000000000000,
210000.000000000000000,-0.000105000000000,-0.000091100000000,-0.000077400000000,-0.000000027800000,0.000000021700000,0.000077200000000,0.000136000000000,-0.000012800000000,-0.000170000000000,0.182000000000000,0.000638000000000,-0.185000000000000,0.000114000000000,0.000765000000000,0.534000000000000,0.652000000000000,
210000.000000000000000,-0.000105000000000,-0.000091100000000,-0.000077400000000,-0.000000028200000,0.000000024500000,0.000077200000000,0.000136000000000,-0.000012800000000,-0.000170000000000,0.182000000000000,0.000638000000000,-0.185000000000000,0.000114000000000,0.000765000000000,0.534000000000000,0.652000000000000,
210000.000000000000000,-0.000105000000000,-0.000091100000000,-0.000077300000000,-0.000000027300000,0.000000010600000,0.000077200000000,0.000136000000000,-0.000012800000000,-0.000170000000000,0.182000000000000,0.000638000000000,-0.185000000000000,0.000108000000000,0.000759000000000,0.534000000000000,0.652000000000000,
210000.000000000000000,-0.000105000000000,-0.000091100000000,-0.000077300000000,-0.000000027300000,0.000000006080000,0.000077200000000,0.000136000000000,-0.000012800000000,-0.000170000000000,0.182000000000000,0.000637000000000,-0.185000000000000,0.000105000000000,0.000757000000000,0.535000000000000,0.653000000000000,
210000.000000000000000,-0.000105000000000,-0.000091100000000,-0.000077300000000,-0.000000028000000,0.000000016700000,0.000077200000000,0.000136000000000,-0.000012800000000,-0.000170000000000,0.183000000000000,0.000638000000000,-0.185000000000000,0.000108000000000,0.000760000000000,0.535000000000000,0.653000000000000,
210000.000000000000000,-0.000105000000000,-0.000091200000000,-0.000077400000000,-0.000000028000000,0.000000022000000,0.000077200000000,0.000136000000000,-0.000012800000000,-0.000170000000000,0.183000000000000,0.000638000000000,-0.186000000000000,0.000112000000000,0.000761000000000,0.535000000000000,0.653000000000000,
210000.000000000000000,-0.000105000000000,-0.000091200000000,-0.000077400000000,-0.000000027700000,0.000000014800000,0.000077300000000,0.000136000000000,-0.000012800000000,-0.000170000000000,0.183000000000000,0.000638000000000,-0.186000000000000,0.000108000000000,0.000758000000000,0.535000000000000,0.654000000000000,
210000.000000000000000,-0.000105000000000,-0.000091200000000,-0.000077400000000,-0.000000027400000,0.000000006700000,0.000077300000000,0.000136000000000,-0.000012800000000,-0.000170000000000,0.183000000000000,0.000638000000000,-0.186000000000000,0.000103000000000,0.000756000000000,0.536000000000000,0.654000000000000,
210000.000000000000000,-0.000105000000000,-0.000091200000000,-0.000077400000000,-0.000000027200000,0.000000006760000,0.000077300000000,0.000136000000000,-0.000012800000000,-0.000170000000000,0.183000000000000,0.000638000000000,-0.186000000000000,0.000105000000000,0.000756000000000,0.536000000000000,0.654000000000000,
211000.000000000000000,-0.000105000000000,-0.000091300000000,-0.000077500000000,-0.000000027700000,0.000000018400000,0.000077300000000,0.000136000000000,-0.000012900000000,-0.000170000000000,0.184000000000000,0.000639000000000,-0.186000000000000,0.000111000000000,0.000761000000000,0.536000000000000,0.655000000000000,
211000.000000000000000,-0.000105000000000,-0.000091300000000,-0.000077500000000,-0.000000028400000,0.000000027500000,0.000077300000000,0.000136000000000,-0.000012900000000,-0.000170000000000,0.184000000000000,0.000639000000000,-0.187000000000000,0.000114000000000,0.000764000000000,0.536000000000000,0.655000000000000,
211000.000000000000000,-0.000106000000000,-0.000091300000000,-0.000077500000000,-0.000000027700000,0.000000012100000,0.000077300000000,0.000136000000000,-0.000012900000000,-0.000170000000000,0.184000000000000,0.000639000000000,-0.187000000000000,0.000108000000000,0.000758000000000,0.536000000000000,0.655000000000000,
211000.000000000000000,-0.000106000000000,-0.000091400000000,-0.000077500000000,-0.000000027200000,0.000000002470000,0.000077300000000,0.000136000000000,-0.000012900000000,-0.000170000000000,0.184000000000000,0.000639000000000,-0.187000000000000,0.000104000000000,0.000755000000000,0.537000000000000,0.656000000000000,
211000.000000000000000,-0.000106000000000,-0.000091400000000,-0.000077600000000,-0.000000028000000,0.000000014400000,0.000077400000000,0.000136000000000,-0.000013000000000,-0.000170000000000,0.184000000000000,0.000640000000000,-0.187000000000000,0.000109000000000,0.000760000000000,0.537000000000000,0.656000000000000,
211000.000000000000000,-0.000106000000000,-0.000091500000000,-0.000077600000000,-0.000000028100000,0.000000022600000,0.000077400000000,0.000136000000000,-0.000013000000000,-0.000170000000000,0.185000000000000,0.000641000000000,-0.187000000000000,0.000115000000000,0.000764000000000,0.537000000000000,0.656000000000000,
211000.000000000000000,-0.000106000000000,-0.000091600000000,-0.000077700000000,-0.000000027900000,0.000000022600000,0.000077400000000,0.000136000000000,-0.000013100000000,-0.000170000000000,0.185000000000000,0.000641000000000,-0.188000000000000,0.000116000000000,0.000766000000000,0.537000000000000,0.657000000000000,
211000.000000000000000,-0.000106000000000,-0.000091600000000,-0.000077600000000,-0.000000027500000,0.000000010200000,0.000077400000000,0.000136000000000,-0.000013100000000,-0.000170000000000,0.185000000000000,0.000641000000000,-0.188000000000000,0.000110000000000,0.000762000000000,0.538000000000000,0.657000000000000,
211000.000000000000000,-0.000106000000000,-0.000091600000000,-0.000077700000000,-0.000000027000000,0.000000001950000,0.000077400000000,0.000136000000000,-0.000013100000000,-0.000170000000000,0.185000000000000,0.000641000000000,-0.188000000000000,0.000107000000000,0.000759000000000,0.538000000000000,0.657000000000000,
211000.000000000000000,-0.000106000000000,-0.000091600000000,-0.000077700000000,-0.000000027500000,0.000000012000000,0.000077400000000,0.000136000000000,-0.000013100000000,-0.000171000000000,0.185000000000000,0.000641000000000,-0.188000000000000,0.000112000000000,0.000763000000000,0.538000000000000,0.658000000000000,
212000.000000000000000,-0.000106000000000,-0.000091700000000,-0.000077700000000,-0.000000028000000,0.000000018800000,0.000077400000000,0.000136000000000,-0.000013100000000,-0.000171000000000,0.185000000000000,0.000642000000000,-0.188000000000000,0.000115000000000,0.000765000000000,0.538000000000000,0.658000000000000,
212000.000000000000000,-0.000106000000000,-0.000091700000000,-0.000077700000000,-0.000000027700000,0.000000012700000,0.000077500000000,0.000136000000000,-0.000013100000000,-0.000171000000000,0.186000000000000,0.000642000000000,-0.189000000000000,0.000112000000000,0.000763000000000,0.538000000000000,0.658000000000000,
212000.000000000000000,-0.000106000000000,-0.000091700000000,-0.000077700000000,-0.000000027100000,0.000000001180000,0.000077500000000,0.000136000000000,-0.000013100000000,-0.000171000000000,0.186000000000000,0.000641000000000,-0.189000000000000,0.000106000000000,0.000758000000000,0.539000000000000,0.659000000000000,
212000.000000000000000,-0.000106000000000,-0.000091700000000,-0.000077700000000,-0.000000027300000,0.000000004050000,0.000077500000000,0.000136000000000,-0.000013100000000,-0.000171000000000,0.186000000000000,0.000642000000000,-0.189000000000000,0.000107000000000,0.000759000000000,0.539000000000000,0.659000000000000,
212000.000000000000000,-0.000106000000000,-0.000091800000000,-0.000077800000000,-0.000000027900000,0.000000018100000,0.000077500000000,0.000136000000000,-0.000013200000000,-0.000171000000000,0.186000000000000,0.000642000000000,-0.189000000000000,0.000113000000000,0.000763000000000,0.539000000000000,0.659000000000000,
212000.000000000000000,-0.000106000000000,-0.000091800000000,-0.000077800000000,-0.000000027800000,0.000000019200000,0.000077500000000,0.000136000000000,-0.000013200000000,-0.000171000000000,0.186000000000000,0.000643000000000,-0.189000000000000,0.000114000000000,0.000763000000000,0.539000000000000,0.660000000000000,
212000.000000000000000,-0.000106000000000,-0.000091800000000,-0.000077800000000,-0.000000027600000,0.000000013900000,0.000077500000000,0.000136000000000,-0.000013200000000,-0.000171000000000,0.187000000000000,0.000643000000000,-0.190000000000000,0.000111000000000,0.000761000000000,0.540000000000000,0.660000000000000,
212000.000000000000000,-0.000106000000000,-0.000091800000000,-0.000077800000000,-0.000000027700000,0.000000011600000,0.000077500000000,0.000137000000000,-0.000013200000000,-0.000171000000000,0.187000000000000,0.000642000000000,-0.190000000000000,0.000109000000000,0.000759000000000,0.540000000000000,0.660000000000000,
212000.000000000000000,-0.000106000000000,-0.000091900000000,-0.000077800000000,-0.000000027800000,0.000000016200000,0.000077500000000,0.000137000000000,-0.000013200000000,-0.000171000000000,0.187000000000000,0.000643000000000,-0.190000000000000,0.000111000000000,0.000760000000000,0.540000000000000,0.661000000000000,
212000.000000000000000,-0.000106000000000,-0.000091900000000,-0.000077900000000,-0.000000028400000,0.000000025400000,0.000077600000000,0.000137000000000,-0.000013200000000,-0.000171000000000,0.187000000000000,0.000643000000000,-0.190000000000000,0.000115000000000,0.000762000000000,0.540000000000000,0.661000000000000,
213000.000000000000000,-0.000106000000000,-0.000091900000000,-0.000077900000000,-0.000000028400000,0.000000021500000,0.000077600000000,0.000137000000000,-0.000013200000000,-0.000171000000000,0.187000000000000,0.000643000000000,-0.190000000000000,0.000113000000000,0.000760000000000,0.541000000000000,0.661000000000000,
213000.000000000000000,-0.000106000000000,-0.000092000000000,-0.000077900000000,-0.000000027600000,0.000000009180000,0.000077600000000,0.000137000000000,-0.000013200000000,-0.000171000000000,0.188000000000000,0.000643000000000,-0.190000000000000,0.000108000000000,0.000757000000000,0.541000000000000,0.661000000000000,
213000.000000000000000,-0.000106000000000,-0.000092000000000,-0.000077900000000,-0.000000027700000,0.000000011400000,0.000077600000000,0.000137000000000,-0.000013300000000,-0.000171000000000,0.188000000000000,0.000644000000000,-0.191000000000000,0.000109000000000,0.000758000000000,0.541000000000000,0.662000000000000,
213000.000000000000000,-0.000107000000000,-0.000092100000000,-0.000078000000000,-0.000000028100000,0.000000019600000,0.000077600000000,0.000137000000000,-0.000013300000000,-0.000171000000000,0.188000000000000,0.000644000000000,-0.191000000000000,0.000114000000000,0.000762000000000,0.541000000000000,0.662000000000000,
213000.000000000000000,-0.000107000000000,-0.000092100000000,-0.000078000000000,-0.000000027700000,0.000000017100000,0.000077600000000,0.000137000000000,-0.000013400000000,-0.000171000000000,0.188000000000000,0.000645000000000,-0.191000000000000,0.000114000000000,0.000761000000000,0.541000000000000,0.662000000000000,
213000.000000000000000,-0.000107000000000,-0.000092100000000,-0.000078000000000,-0.000000027600000,0.000000009550000,0.000077600000000,0.000137000000000,-0.000013300000000,-0.000171000000000,0.188000000000000,0.000644000000000,-0.191000000000000,0.000110000000000,0.000759000000000,0.542000000000000,0.663000000000000,
213000.000000000000000,-0.000107000000000,-0.000092100000000,-0.000078000000000,-0.000000027400000,0.000000003730000,0.000077700000000,0.000137000000000,-0.000013300000000,-0.000171000000000,0.189000000000000,0.000644000000000,-0.191000000000000,0.000107000000000,0.000758000000000,0.542000000000000,0.663000000000000,
213000.000000000000000,-0.000107000000000,-0.000092200000000,-0.000078000000000,-0.000000027400000,0.000000005850000,0.000077700000000,0.000137000000000,-0.000013400000000,-0.000171000000000,0.189000000000000,0.000645000000000,-0.192000000000000,0.000109000000000,0.000758000000000,0.542000000000000,0.663000000000000,
213000.000000000000000,-0.000107000000000,-0.000092200000000,-0.000078100000000,-0.000000028100000,0.000000018800000,0.000077700000000,0.000137000000000,-0.000013400000000,-0.000171000000000,0.189000000000000,0.000645000000000,-0.192000000000000,0.000115000000000,0.000764000000000,0.542000000000000,0.664000000000000,
213000.000000000000000,-0.000107000000000,-0.000092300000000,-0.000078100000000,-0.000000028000000,0.000000015700000,0.000077700000000,0.000137000000000,-0.000013400000000,-0.000171000000000,0.189000000000000,0.000645000000000,-0.192000000000000,0.000114000000000,0.000763000000000,0.543000000000000,0.664000000000000,
214000.000000000000000,-0.000107000000000,-0.000092300000000,-0.000078100000000,-0.000000027200000,0.000000003930000,0.000077700000000,0.000137000000000,-0.000013400000000,-0.000171000000000,0.189000000000000,0.000646000000000,-0.192000000000000,0.000110000000000,0.000759000000000,0.543000000000000,0.664000000000000,
214000.000000000000000,-0.000107000000000,-0.000092300000000,-0.000078100000000,-0.000000027200000,0.000000004870000,0.000077700000000,0.000137000000000,-0.000013500000000,-0.000172000000000,0.190000000000000,0.000646000000000,-0.192000000000000,0.000110000000000,0.000761000000000,0.543000000000000,0.665000000000000,
214000.000000000000000,-0.000107000000000,-0.000092400000000,-0.000078200000000,-0.000000027900000,0.000000018400000,0.000077700000000,0.000137000000000,-0.000013500000000,-0.000172000000000,0.190000000000000,0.000646000000000,-0.193000000000000,0.000117000000000,0.000766000000000,0.543000000000000,0.665000000000000,
214000.000000000000000,-0.000107000000000,-0.000092500000000,-0.000078200000000,-0.000000028000000,0.000000023400000,0.000077700000000,0.000137000000000,-0.000013600000000,-0.000172000000000,0.190000000000000,0.000647000000000,-0.193000000000000,0.000120000000000,0.000768000000000,0.543000000000000,0.665000000000000,
214000.000000000000000,-0.000107000000000,-0.000092500000000,-0.000078200000000,-0.000000027500000,0.000000012900000,0.000077800000000,0.000137000000000,-0.000013600000000,-0.000172000000000,0.190000000000000,0.000647000000000,-0.193000000000000,0.000115000000000,0.000764000000000,0.544000000000000,0.666000000000000,
214000.000000000000000,-0.000107000000000,-0.000092500000000,-0.000078200000000,-0.000000027400000,0.000000006030000,0.000077800000000,0.000137000000000,-0.000013500000000,-0.000172000000000,0.190000000000000,0.000647000000000,-0.193000000000000,0.000111000000000,0.000761000000000,0.544000000000000,0.666000000000000,
214000.000000000000000,-0.000107000000000,-0.000092500000000,-0.000078200000000,-0.000000027400000,0.000000007590000,0.000077800000000,0.000137000000000,-0.000013600000000,-0.000172000000000,0.191000000000000,0.000647000000000,-0.193000000000000,0.000112000000000,0.000762000000000,0.544000000000000,0.666000000000000,
214000.000000000000000,-0.000107000000000,-0.000092600000000,-0.000078300000000,-0.000000027800000,0.000000016400000,0.000077800000000,0.000137000000000,-0.000013600000000,-0.000172000000000,0.191000000000000,0.000647000000000,-0.194000000000000,0.000117000000000,0.000764000000000,0.544000000000000,0.667000000000000,
214000.000000000000000,-0.000107000000000,-0.000092600000000,-0.000078300000000,-0.000000028000000,0.000000018500000,0.000077800000000,0.000137000000000,-0.000013600000000,-0.000172000000000,0.191000000000000,0.000648000000000,-0.194000000000000,0.000117000000000,0.000766000000000,0.545000000000000,0.667000000000000,
214000.000000000000000,-0.000107000000000,-0.000092600000000,-0.000078300000000,-0.000000027500000,0.000000008120000,0.000077800000000,0.000137000000000,-0.000013600000000,-0.000172000000000,0.191000000000000,0.000648000000000,-0.194000000000000,0.000112000000000,0.000762000000000,0.545000000000000,0.667000000000000,
215000.000000000000000,-0.000107000000000,-0.000092600000000,-0.000078300000000,-0.000000027000000,0.000000001480000,0.000077800000000,0.000137000000000,-0.000013600000000,-0.000172000000000,0.191000000000000,0.000648000000000,-0.194000000000000,0.000110000000000,0.000759000000000,0.545000000000000,0.668000000000000,
215000.000000000000000,-0.000107000000000,-0.000092700000000,-0.000078300000000,-0.000000027500000,0.000000009980000,0.000077900000000,0.000137000000000,-0.000013700000000,-0.000172000000000,0.191000000000000,0.000648000000000,-0.194000000000000,0.000114000000000,0.000762000000000,0.545000000000000,0.668000000000000,
215000.000000000000000,-0.000107000000000,-0.000092700000000,-0.000078400000000,-0.000000028100000,0.000000020300000,0.000077900000000,0.000137000000000,-0.000013700000000,-0.000172000000000,0.192000000000000,0.000649000000000,-0.195000000000000,0.000118000000000,0.000766000000000,0.546000000000000,0.668000000000000,
215000.000000000000000,-0.000107000000000,-0.000092800000000,-0.000078400000000,-0.000000027700000,0.000000013800000,0.000077900000000,0.000137000000000,-0.000013700000000,-0.000172000000000,0.192000000000000,0.000649000000000,-0.195000000000000,0.000115000000000,0.000763000000000,0.546000000000000,0.669000000000000,
215000.000000000000000,-0.000107000000000,-0.000092700000000,-0.000078400000000,-0.000000027600000,0.000000006760000,0.000077900000000,0.000137000000000,-0.000013700000000,-0.000172000000000,0.192000000000000,0.000648000000000,-0.195000000000000,0.000111000000000,0.000760000000000,0.546000000000000,0.669000000000000,
215000.000000000000000,-0.000108000000000,-0.000092800000000,-0.000078400000000,-0.000000027800000,0.000000009770000,0.000077900000000,0.000137000000000,-0.000013700000000,-0.000172000000000,0.192000000000000,0.000649000000000,-0.195000000000000,0.000112000000000,0.000760000000000,0.546000000000000,0.669000000000000,
215000.000000000000000,-0.000108000000000,-0.000092800000000,-0.000078400000000,-0.000000028100000,0.000000017000000,0.000077900000000,0.000137000000000,-0.000013700000000,-0.000172000000000,0.192000000000000,0.000649000000000,-0.195000000000000,0.000116000000000,0.000762000000000,0.546000000000000,0.669000000000000,
215000.000000000000000,-0.000108000000000,-0.000092900000000,-0.000078500000000,-0.000000028400000,0.000000021900000,0.000077900000000,0.000137000000000,-0.000013800000000,-0.000172000000000,0.193000000000000,0.000650000000000,-0.196000000000000,0.000118000000000,0.000764000000000,0.547000000000000,0.670000000000000,
215000.000000000000000,-0.000108000000000,-0.000092900000000,-0.000078500000000,-0.000000027900000,0.000000013600000,0.000077900000000,0.000137000000000,-0.000013800000000,-0.000172000000000,0.193000000000000,0.000650000000000,-0.196000000000000,0.000115000000000,0.000761000000000,0.547000000000000,0.670000000000000,
215000.000000000000000,-0.000108000000000,-0.000092900000000,-0.000078500000000,-0.000000027600000,0.000000009540000,0.000078000000000,0.000137000000000,-0.000013800000000,-0.000172000000000,0.193000000000000,0.000650000000000,-0.196000000000000,0.000112000000000,0.000760000000000,0.547000000000000,0.670000000000000,
216000.000000000000000,-0.000108000000000,-0.000093000000000,-0.000078500000000,-0.000000028000000,0.000000015900000,0.000078000000000,0.000137000000000,-0.000013800000000,-0.000172000000000,0.193000000000000,0.000650000000000,-0.196000000000000,0.000116000000000,0.000762000000000,0.547000000000000,0.671000000000000,
216000.000000000000000,-0.000108000000000,-0.000093000000000,-0.000078600000000,-0.000000028100000,0.000000019800000,0.000078000000000,0.000137000000000,-0.000013800000000,-0.000173000000000,0.193000000000000,0.000650000000000,-0.196000000000000,0.000118000000000,0.000763000000000,0.548000000000000,0.671000000000000,
216000.000000000000000,-0.000108000000000,-0.000093000000000,-0.000078600000000,-0.000000028000000,0.000000016700000,0.000078000000000,0.000137000000000,-0.000013800000000,-0.000173000000000,0.194000000000000,0.000650000000000,-0.197000000000000,0.000116000000000,0.000762000000000,0.548000000000000,0.671000000000000,
216000.000000000000000,-0.000108000000000,-0.000093000000000,-0.000078500000000,-0.000000027600000,0.000000007650000,0.000078000000000,0.000137000000000,-0.000013800000000,-0.000173000000000,0.194000000000000,0.000650000000000,-0.197000000000000,0.000111000000000,0.000759000000000,0.548000000000000,0.672000000000000,
216000.000000000000000,-0.000108000000000,-0.000093100000000,-0.000078600000000,-0.000000027600000,0.000000008050000,0.000078000000000,0.000138000000000,-0.000013800000000,-0.000173000000000,0.194000000000000,0.000651000000000,-0.197000000000000,0.000112000000000,0.000759000000000,0.548000000000000,0.672000000000000,
216000.000000000000000,-0.000108000000000,-0.000093100000000,-0.000078600000000,-0.000000028100000,0.000000018300000,0.000078000000000,0.000138000000000,-0.000013900000000,-0.000173000000000,0.194000000000000,0.000651000000000,-0.197000000000000,0.000117000000000,0.000763000000000,0.548000000000000,0.672000000000000,
216000.000000000000000,-0.000108000000000,-0.000093200000000,-0.000078700000000,-0.000000028300000,0.000000020700000,0.000078100000000,0.000138000000000,-0.000013900000000,-0.000173000000000,0.194000000000000,0.000651000000000,-0.197000000000000,0.000118000000000,0.000763000000000,0.549000000000000,0.673000000000000,
216000.000000000000000,-0.000108000000000,-0.000093200000000,-0.000078700000000,-0.000000027800000,0.000000012200000,0.000078100000000,0.000138000000000,-0.000013900000000,-0.000173000000000,0.195000000000000,0.000651000000000,-0.198000000000000,0.000115000000000,0.000761000000000,0.549000000000000,0.673000000000000,
216000.000000000000000,-0.000108000000000,-0.000093200000000,-0.000078700000000,-0.000000027600000,0.000000008610000,0.000078100000000,0.000138000000000,-0.000013900000000,-0.000173000000000,0.195000000000000,0.000652000000000,-0.198000000000000,0.000113000000000,0.000760000000000,0.549000000000000,0.673000000000000,
216000.000000000000000,-0.000108000000000,-0.000093300000000,-0.000078700000000,-0.000000027900000,0.000000016000000,0.000078100000000,0.000138000000000,-0.000014000000000,-0.000173000000000,0.195000000000000,0.000652000000000,-0.198000000000000,0.000117000000000,0.000763000000000,0.549000000000000,0.674000000000000,
217000.000000000000000,-0.000108000000000,-0.000093300000000,-0.000078800000000,-0.000000028300000,0.000000024100000,0.000078100000000,0.000138000000000,-0.000014000000000,-0.000173000000000,0.195000000000000,0.000652000000000,-0.198000000000000,0.000121000000000,0.000765000000000,0.550000000000000,0.674000000000000,
217000.000000000000000,-0.000108000000000,-0.000093400000000,-0.000078800000000,-0.000000028200000,0.000000020500000,0.000078100000000,0.000138000000000,-0.000014000000000,-0.000173000000000,0.195000000000000,0.000653000000000,-0.198000000000000,0.000119000000000,0.000763000000000,0.550000000000000,0.674000000000000,
217000.000000000000000,-0.000108000000000,-0.000093400000000,-0.000078700000000,-0.000000027800000,0.000000009870000,0.000078100000000,0.000138000000000,-0.000014000000000,-0.000173000000000,0.196000000000000,0.000652000000000,-0.199000000000000,0.000113000000000,0.000759000000000,0.550000000000000,0.675000000000000,
217000.000000000000000,-0.000108000000000,-0.000093400000000,-0.000078800000000,-0.000000027900000,0.000000009140000,0.000078100000000,0.000138000000000,-0.000014000000000,-0.000173000000000,0.196000000000000,0.000653000000000,-0.199000000000000,0.000113000000000,0.000759000000000,0.550000000000000,0.675000000000000,
217000.000000000000000,-0.000108000000000,-0.000093400000000,-0.000078800000000,-0.000000028100000,0.000000016700000,0.000078200000000,0.000138000000000,-0.000014100000000,-0.000173000000000,0.196000000000000,0.000653000000000,-0.199000000000000,0.000117000000000,0.000762000000000,0.550000000000000,0.675000000000000,
217000.000000000000000,-0.000108000000000,-0.000093500000000,-0.000078800000000,-0.000000028400000,0.000000021900000,0.000078200000000,0.000138000000000,-0.000014100000000,-0.000173000000000,0.196000000000000,0.000653000000000,-0.199000000000000,0.000120000000000,0.000764000000000,0.551000000000000,0.676000000000000,
217000.000000000000000,-0.000109000000000,-0.000093500000000,-0.000078800000000,-0.000000028000000,0.000000014100000,0.000078200000000,0.000138000000000,-0.000014100000000,-0.000173000000000,0.196000000000000,0.000653000000000,-0.199000000000000,0.000116000000000,0.000762000000000,0.551000000000000,0.676000000000000,
217000.000000000000000,-0.000109000000000,-0.000093500000000,-0.000078800000000,-0.000000027400000,0.000000004600000,0.000078200000000,0.000138000000000,-0.000014100000000,-0.000173000000000,0.197000000000000,0.000653000000000,-0.200000000000000,0.000112000000000,0.000758000000000,0.551000000000000,0.676000000000000,
217000.000000000000000,-0.000109000000000,-0.000093600000000,-0.000078900000000,-0.000000027800000,0.000000011100000,0.000078200000000,0.000138000000000,-0.000014100000000,-0.000173000000000,0.197000000000000,0.000654000000000,-0.200000000000000,0.000115000000000,0.000761000000000,0.551000000000000,0.676000000000000,
217000.000000000000000,-0.000109000000000,-0.000093600000000,-0.000078900000000,-0.000000028200000,0.000000019300000,0.000078200000000,0.000138000000000,-0.000014200000000,-0.000173000000000,0.197000000000000,0.000654000000000,-0.200000000000000,0.000120000000000,0.000764000000000,0.552000000000000,0.677000000000000,
218000.000000000000000,-0.000109000000000,-0.000093700000000,-0.000078900000000,-0.000000028100000,0.000000018700000,0.000078200000000,0.000138000000000,-0.000014200000000,-0.000173000000000,0.197000000000000,0.000655000000000,-0.200000000000000,0.000120000000000,0.000764000000000,0.552000000000000,0.677000000000000,
218000.000000000000000,-0.000109000000000,-0.000093700000000,-0.000078900000000,-0.000000027900000,0.000000011300000,0.000078300000000,0.000138000000000,-0.000014200000000,-0.000173000000000,0.197000000000000,0.000654000000000,-0.200000000000000,0.000116000000000,0.000761000000000,0.552000000000000,0.677000000000000,
218000.000000000000000,-0.000109000000000,-0.000093700000000,-0.000078900000000,-0.000000027700000,0.000000008450000,0.000078300000000,0.000138000000000,-0.000014200000000,-0.000174000000000,0.198000000000000,0.000655000000000,-0.201000000000000,0.000114000000000,0.000760000000000,0.552000000000000,0.678000000000000,
218000.000000000000000,-0.000109000000000,-0.000093700000000,-0.000079000000000,-0.000000028100000,0.000000016800000,0.000078300000000,0.000138000000000,-0.000014200000000,-0.000174000000000,0.198000000000000,0.000655000000000,-0.201000000000000,0.000119000000000,0.000762000000000,0.552000000000000,0.678000000000000,
218000.000000000000000,-0.000109000000000,-0.000093800000000,-0.000079000000000,-0.000000028400000,0.000000022700000,0.000078300000000,0.000138000000000,-0.000014300000000,-0.000174000000000,0.198000000000000,0.000655000000000,-0.201000000000000,0.000122000000000,0.000765000000000,0.553000000000000,0.678000000000000,
218000.000000000000000,-0.000109000000000,-0.000093800000000,-0.000079000000000,-0.000000028100000,0.000000018000000,0.000078300000000,0.000138000000000,-0.000014300000000,-0.000174000000000,0.198000000000000,0.000656000000000,-0.201000000000000,0.000120000000000,0.000764000000000,0.553000000000000,0.679000000000000,
218000.000000000000000,-0.000109000000000,-0.000093800000000,-0.000079000000000,-0.000000027700000,0.000000010100000,0.000078300000000,0.000138000000000,-0.000014300000000,-0.000174000000000,0.198000000000000,0.000656000000000,-0.201000000000000,0.000116000000000,0.000761000000000,0.553000000000000,0.679000000000000,
218000.000000000000000,-0.000109000000000,-0.000093900000000,-0.000079100000000,-0.000000027800000,0.000000013100000,0.000078300000000,0.000138000000000,-0.000014300000000,-0.000174000000000,0.199000000000000,0.000656000000000,-0.201000000000000,0.000118000000000,0.000762000000000,0.553000000000000,0.679000000000000,
218000.000000000000000,-0.000109000000000,-0.000093900000000,-0.000079100000000,-0.000000028200000,0.000000020100000,0.000078300000000,0.000138000000000,-0.000014300000000,-0.000174000000000,0.199000000000000,0.000656000000000,-0.202000000000000,0.000121000000000,0.000764000000000,0.553000000000000,0.680000000000000,
218000.000000000000000,-0.000109000000000,-0.000094000000000,-0.000079100000000,-0.000000028100000,0.000000018400000,0.000078400000000,0.000138000000000,-0.000014400000000,-0.000174000000000,0.199000000000000,0.000657000000000,-0.202000000000000,0.000121000000000,0.000764000000000,0.554000000000000,0.680000000000000,
219000.000000000000000,-0.000109000000000,-0.000094000000000,-0.000079100000000,-0.000000027800000,0.000000011100000,0.000078400000000,0.000138000000000,-0.000014300000000,-0.000174000000000,0.199000000000000,0.000656000000000,-0.202000000000000,0.000117000000000,0.000761000000000,0.554000000000000,0.680000000000000,
219000.000000000000000,-0.000109000000000,-0.000094000000000,-0.000079100000000,-0.000000027700000,0.000000007920000,0.000078400000000,0.000138000000000,-0.000014300000000,-0.000174000000000,0.199000000000000,0.000656000000000,-0.202000000000000,0.000115000000000,0.000760000000000,0.554000000000000,0.681000000000000,
219000.000000000000000,-0.000109000000000,-0.000094000000000,-0.000079200000000,-0.000000028100000,0.000000014700000,0.000078400000000,0.000138000000000,-0.000014400000000,-0.000174000000000,0.200000000000000,0.000657000000000,-0.202000000000000,0.000119000000000,0.000762000000000,0.554000000000000,0.681000000000000,
219000.000000000000000,-0.000109000000000,-0.000094100000000,-0.000079200000000,-0.000000028400000,0.000000019600000,0.000078400000000,0.000138000000000,-0.000014400000000,-0.000174000000000,0.200000000000000,0.000657000000000,-0.203000000000000,0.000121000000000,0.000764000000000,0.555000000000000,0.681000000000000,
219000.000000000000000,-0.000109000000000,-0.000094100000000,-0.000079200000000,-0.000000028100000,0.000000013800000,0.000078400000000,0.000138000000000,-0.000014400000000,-0.000174000000000,0.200000000000000,0.000657000000000,-0.203000000000000,0.000118000000000,0.000762000000000,0.555000000000000,0.682000000000000,
219000.000000000000000,-0.000109000000000,-0.000094100000000,-0.000079200000000,-0.000000027800000,0.000000008770000,0.000078400000000,0.000138000000000,-0.000014400000000,-0.000174000000000,0.200000000000000,0.000657000000000,-0.203000000000000,0.000116000000000,0.000760000000000,0.555000000000000,0.682000000000000,
219000.000000000000000,-0.000109000000000,-0.000094200000000,-0.000079300000000,-0.000000028000000,0.000000013200000,0.000078500000000,0.000138000000000,-0.000014500000000,-0.000174000000000,0.200000000000000,0.000658000000000,-0.203000000000000,0.000119000000000,0.000762000000000,0.555000000000000,0.682000000000000,
219000.000000000000000,-0.000110000000000,-0.000094200000000,-0.000079300000000,-0.000000028300000,0.000000020300000,0.000078500000000,0.000138000000000,-0.000014500000000,-0.000174000000000,0.201000000000000,0.000658000000000,-0.203000000000000,0.000123000000000,0.000765000000000,0.555000000000000,0.682000000000000,
219000.000000000000000,-0.000110000000000,-0.000094300000000,-0.000079300000000,-0.000000028200000,0.000000019700000,0.000078500000000,0.000138000000000,-0.000014500000000,-0.000174000000000,0.201000000000000,0.000659000000000,-0.204000000000000,0.000123000000000,0.000765000000000,0.556000000000000,0.683000000000000,
219000.000000000000000,-0.000110000000000,-0.000094300000000,-0.000079300000000,-0.000000027800000,0.000000010900000,0.000078500000000,0.000138000000000,-0.000014500000000,-0.000174000000000,0.201000000000000,0.000658000000000,-0.204000000000000,0.000118000000000,0.000762000000000,0.556000000000000,0.683000000000000,
220000.000000000000000,-0.000110000000000,-0.000094300000000,-0.000079300000000,-0.000000027700000,0.000000008060000,0.000078500000000,0.000138000000000,-0.000014500000000,-0.000174000000000,0.201000000000000,0.000659000000000,-0.204000000000000,0.000117000000000,0.000761000000000,0.556000000000000,0.683000000000000,
220000.000000000000000,-0.000110000000000,-0.000094400000000,-0.000079400000000,-0.000000028100000,0.000000015600000,0.000078500000000,0.000139000000000,-0.000014600000000,-0.000175000000000,0.201000000000000,0.000659000000000,-0.204000000000000,0.000121000000000,0.000764000000000,0.556000000000000,0.684000000000000,
220000.000000000000000,-0.000110000000000,-0.000094400000000,-0.000079400000000,-0.000000028300000,0.000000019300000,0.000078500000000,0.000139000000000,-0.000014600000000,-0.000175000000000,0.201000000000000,0.000659000000000,-0.204000000000000,0.000123000000000,0.000765000000000,0.557000000000000,0.684000000000000,
220000.000000000000000,-0.000110000000000,-0.000094400000000,-0.000079400000000,-0.000000027900000,0.000000013400000,0.000078500000000,0.000139000000000,-0.000014600000000,-0.000175000000000,0.202000000000000,0.000659000000000,-0.205000000000000,0.000120000000000,0.000763000000000,0.557000000000000,0.684000000000000,
220000.000000000000000,-0.000110000000000,-0.000094400000000,-0.000079400000000,-0.000000027500000,0.000000005460000,0.000078600000000,0.000139000000000,-0.000014600000000,-0.000175000000000,0.202000000000000,0.000659000000000,-0.205000000000000,0.000116000000000,0.000761000000000,0.557000000000000,0.685000000000000,
220000.000000000000000,-0.000110000000000,-0.000094500000000,-0.000079400000000,-0.000000027700000,0.000000009010000,0.000078600000000,0.000139000000000,-0.000014600000000,-0.000175000000000,0.202000000000000,0.000660000000000,-0.205000000000000,0.000118000000000,0.000762000000000,0.557000000000000,0.685000000000000,
220000.000000000000000,-0.000110000000000,-0.000094600000000,-0.000079500000000,-0.000000028100000,0.000000018700000,0.000078600000000,0.000139000000000,-0.000014700000000,-0.000175000000000,0.202000000000000,0.000660000000000,-0.205000000000000,0.000124000000000,0.000766000000000,0.557000000000000,0.685000000000000,
220000.000000000000000,-0.000110000000000,-0.000094600000000,-0.000079500000000,-0.000000028000000,0.000000017500000,0.000078600000000,0.000139000000000,-0.000014700000000,-0.000175000000000,0.202000000000000,0.000661000000000,-0.205000000000000,0.000124000000000,0.000766000000000,0.558000000000000,0.686000000000000,
220000.000000000000000,-0.000110000000000,-0.000094600000000,-0.000079500000000,-0.000000027700000,0.000000010400000,0.000078600000000,0.000139000000000,-0.000014700000000,-0.000175000000000,0.203000000000000,0.000661000000000,-0.206000000000000,0.000120000000000,0.000763000000000,0.558000000000000,0.686000000000000,
220000.000000000000000,-0.000110000000000,-0.000094600000000,-0.000079500000000,-0.000000027600000,0.000000006490000,0.000078600000000,0.000139000000000,-0.000014700000000,-0.000175000000000,0.203000000000000,0.000661000000000,-0.206000000000000,0.000118000000000,0.000762000000000,0.558000000000000,0.686000000000000,
221000.000000000000000,-0.000110000000000,-0.000094700000000,-0.000079600000000,-0.000000027800000,0.000000012200000,0.000078600000000,0.000139000000000,-0.000014700000000,-0.000175000000000,0.203000000000000,0.000661000000000,-0.206000000000000,0.000121000000000,0.000763000000000,0.558000000000000,0.687000000000000,
221000.000000000000000,-0.000110000000000,-0.000094700000000,-0.000079600000000,-0.000000028300000,0.000000019500000,0.000078700000000,0.000139000000000,-0.000014800000000,-0.000175000000000,0.203000000000000,0.000661000000000,-0.206000000000000,0.000125000000000,0.000766000000000,0.559000000000000,0.687000000000000,
221000.000000000000000,-0.000110000000000,-0.000094700000000,-0.000079600000000,-0.000000028000000,0.000000013400000,0.000078700000000,0.000139000000000,-0.000014800000000,-0.000175000000000,0.203000000000000,0.000661000000000,-0.206000000000000,0.000122000000000,0.000764000000000,0.559000000000000,0.687000000000000,
221000.000000000000000,-0.000110000000000,-0.000094700000000,-0.000079600000000,-0.000000027600000,0.000000005420000,0.000078700000000,0.000139000000000,-0.000014800000000,-0.000175000000000,0.204000000000000,0.000661000000000,-0.207000000000000,0.000118000000000,0.000762000000000,0.559000000000000,0.688000000000000,
221000.000000000000000,-0.000110000000000,-0.000094800000000,-0.000079600000000,-0.000000027700000,0.000000006770000,0.000078700000000,0.000139000000000,-0.000014800000000,-0.000175000000000,0.204000000000000,0.000662000000000,-0.207000000000000,0.000119000000000,0.000762000000000,0.559000000000000,0.688000000000000,
221000.000000000000000,-0.000110000000000,-0.000094800000000,-0.000079700000000,-0.000000027900000,0.000000013000000,0.000078700000000,0.000139000000000,-0.000014800000000,-0.000175000000000,0.204000000000000,0.000662000000000,-0.207000000000000,0.000122000000000,0.000764000000000,0.559000000000000,0.688000000000000,
221000.000000000000000,-0.000110000000000,-0.000094900000000,-0.000079700000000,-0.000000028000000,0.000000015000000,0.000078700000000,0.000139000000000,-0.000014900000000,-0.000175000000000,0.204000000000000,0.000663000000000,-0.207000000000000,0.000124000000000,0.000766000000000,0.560000000000000,0.688000000000000,
221000.000000000000000,-0.000110000000000,-0.000094900000000,-0.000079700000000,-0.000000027600000,0.000000007800000,0.000078700000000,0.000139000000000,-0.000014900000000,-0.000175000000000,0.204000000000000,0.000663000000000,-0.207000000000000,0.000120000000000,0.000764000000000,0.560000000000000,0.689000000000000,
221000.000000000000000,-0.000110000000000,-0.000094900000000,-0.000079700000000,-0.000000027400000,0.000000003140000,0.000078700000000,0.000139000000000,-0.000014900000000,-0.000175000000000,0.205000000000000,0.000663000000000,-0.208000000000000,0.000118000000000,0.000762000000000,0.560000000000000,0.689000000000000,
221000.000000000000000,-0.000111000000000,-0.000095000000000,-0.000079800000000,-0.000000027700000,0.000000008430000,0.000078800000000,0.000139000000000,-0.000014900000000,-0.000175000000000,0.205000000000000,0.000663000000000,-0.208000000000000,0.000121000000000,0.000764000000000,0.560000000000000,0.689000000000000,
222000.000000000000000,-0.000111000000000,-0.000094900000000,-0.000079700000000,-0.000000027100000,-0.000000005020000,0.000078800000000,0.000139000000000,-0.000014800000000,-0.000175000000000,0.205000000000000,0.000662000000000,-0.208000000000000,0.000114000000000,0.000761000000000,0.560000000000000,0.690000000000000,
222000.000000000000000,-0.000110000000000,-0.000094900000000,-0.000079600000000,-0.000000026500000,-0.000000013000000,0.000078800000000,0.000139000000000,-0.000014800000000,-0.000175000000000,0.205000000000000,0.000662000000000,-0.208000000000000,0.000110000000000,0.000759000000000,0.561000000000000,0.690000000000000,
222000.000000000000000,-0.000111000000000,-0.000095000000000,-0.000079700000000,-0.000000029200000,0.000000018000000,0.000078800000000,0.000139000000000,-0.000014900000000,-0.000175000000000,0.205000000000000,0.000663000000000,-0.208000000000000,0.000120000000000,0.000768000000000,0.561000000000000,0.690000000000000,
222000.000000000000000,-0.000111000000000,-0.000095200000000,-0.000079900000000,-0.000000032100000,0.000000074300000,0.000078800000000,0.000139000000000,-0.000015100000000,-0.000176000000000,0.206000000000000,0.000665000000000,-0.209000000000000,0.000149000000000,0.000789000000000,0.561000000000000,0.691000000000000,
222000.000000000000000,-0.000111000000000,-0.000095200000000,-0.000079900000000,-0.000000027700000,0.000000024700000,0.000078800000000,0.000139000000000,-0.000015100000000,-0.000176000000000,0.206000000000000,0.000665000000000,-0.209000000000000,0.000134000000000,0.000767000000000,0.561000000000000,0.691000000000000,
222000.000000000000000,-0.000111000000000,-0.000095200000000,-0.000079900000000,-0.000000025400000,-0.000000014000000,0.000078800000000,0.000139000000000,-0.000015000000000,-0.000176000000000,0.206000000000000,0.000664000000000,-0.209000000000000,0.000117000000000,0.000753000000000,0.562000000000000,0.691000000000000,
222000.000000000000000,-0.000111000000000,-0.000095200000000,-0.000079900000000,-0.000000027400000,0.000000008030000,0.000078900000000,0.000139000000000,-0.000015000000000,-0.000176000000000,0.206000000000000,0.000665000000000,-0.209000000000000,0.000123000000000,0.000765000000000,0.562000000000000,0.692000000000000,
222000.000000000000000,-0.000111000000000,-0.000095300000000,-0.000079900000000,-0.000000028100000,0.000000017900000,0.000078900000000,0.000139000000000,-0.000015100000000,-0.000176000000000,0.206000000000000,0.000665000000000,-0.209000000000000,0.000127000000000,0.000766000000000,0.562000000000000,0.692000000000000,
222000.000000000000000,-0.000111000000000,-0.000095400000000,-0.000080000000000,-0.000000029900000,0.000000045900000,0.000078900000000,0.000139000000000,-0.000015200000000,-0.000176000000000,0.207000000000000,0.000666000000000,-0.210000000000000,0.000140000000000,0.000779000000000,0.562000000000000,0.692000000000000,
222000.000000000000000,-0.000111000000000,-0.000095300000000,-0.000079900000000,-0.000000027000000,-0.000000001590000,0.000078900000000,0.000139000000000,-0.000015000000000,-0.000176000000000,0.207000000000000,0.000665000000000,-0.210000000000000,0.000117000000000,0.000763000000000,0.562000000000000,0.693000000000000,
223000.000000000000000,-0.000111000000000,-0.000095200000000,-0.000079800000000,-0.000000025000000,-0.000000037300000,0.000078900000000,0.000139000000000,-0.000015000000000,-0.000176000000000,0.207000000000000,0.000664000000000,-0.210000000000000,0.000100000000000,0.000750000000000,0.563000000000000,0.693000000000000,
223000.000000000000000,-0.000111000000000,-0.000095300000000,-0.000079900000000,-0.000000025900000,-0.000000018400000,0.000078900000000,0.000139000000000,-0.000015100000000,-0.000176000000000,0.207000000000000,0.000665000000000,-0.210000000000000,0.000112000000000,0.000756000000000,0.563000000000000,0.693000000000000,
223000.000000000000000,-0.000111000000000,-0.000095400000000,-0.000080000000000,-0.000000027100000,0.000000000245000,0.000078900000000,0.000139000000000,-0.000015100000000,-0.000176000000000,0.207000000000000,0.000666000000000,-0.210000000000000,0.000119000000000,0.000760000000000,0.563000000000000,0.693000000000000,
223000.000000000000000,-0.000111000000000,-0.000095400000000,-0.000080000000000,-0.000000029500000,0.000000030300000,0.000078900000000,0.000139000000000,-0.000015200000000,-0.000176000000000,0.208000000000000,0.000666000000000,-0.211000000000000,0.000129000000000,0.000774000000000,0.563000000000000,0.694000000000000,
223000.000000000000000,-0.000111000000000,-0.000095400000000,-0.000080000000000,-0.000000028300000,0.000000005290000,0.000079000000000,0.000139000000000,-0.000015100000000,-0.000176000000000,0.208000000000000,0.000665000000000,-0.211000000000000,0.000116000000000,0.000764000000000,0.563000000000000,0.694000000000000,
223000.000000000000000,-0.000111000000000,-0.000095400000000,-0.000080000000000,-0.000000026400000,-0.000000013300000,0.000079000000000,0.000139000000000,-0.000015100000000,-0.000176000000000,0.208000000000000,0.000666000000000,-0.211000000000000,0.000111000000000,0.000754000000000,0.564000000000000,0.694000000000000,
223000.000000000000000,-0.000111000000000,-0.000095600000000,-0.000080200000000,-0.000000028500000,0.000000030300000,0.000079000000000,0.000139000000000,-0.000015300000000,-0.000176000000000,0.208000000000000,0.000667000000000,-0.211000000000000,0.000135000000000,0.000768000000000,0.564000000000000,0.695000000000000,
223000.000000000000000,-0.000111000000000,-0.000095700000000,-0.000080200000000,-0.000000029600000,0.000000042700000,0.000079000000000,0.000139000000000,-0.000015300000000,-0.000176000000000,0.208000000000000,0.000668000000000,-0.211000000000000,0.000138000000000,0.000771000000000,0.564000000000000,0.695000000000000,
223000.000000000000000,-0.000111000000000,-0.000095700000000,-0.000080200000000,-0.000000028600000,0.000000026900000,0.000079000000000,0.000140000000000,-0.000015300000000,-0.000176000000000,0.209000000000000,0.000668000000000,-0.212000000000000,0.000132000000000,0.000767000000000,0.564000000000000,0.695000000000000,
223000.000000000000000,-0.000111000000000,-0.000095600000000,-0.000080100000000,-0.000000028600000,0.000000018100000,0.000079000000000,0.000140000000000,-0.000015200000000,-0.000176000000000,0.209000000000000,0.000667000000000,-0.212000000000000,0.000124000000000,0.000766000000000,0.565000000000000,0.696000000000000,
224000.000000000000000,-0.000112000000000,-0.000095700000000,-0.000080100000000,-0.000000028400000,0.000000016200000,0.000079000000000,0.000140000000000,-0.000015200000000,-0.000176000000000,0.209000000000000,0.000667000000000,-0.212000000000000,0.000124000000000,0.000764000000000,0.565000000000000,0.696000000000000,
224000.000000000000000,-0.000112000000000,-0.000095800000000,-0.000080300000000,-0.000000028700000,0.000000032100000,0.000079000000000,0.000140000000000,-0.000015400000000,-0.000177000000000,0.209000000000000,0.000669000000000,-0.212000000000000,0.000137000000000,0.000769000000000,0.565000000000000,0.696000000000000,
224000.000000000000000,-0.000112000000000,-0.000095800000000,-0.000080200000000,-0.000000027300000,0.000000007850000,0.000079100000000,0.000140000000000,-0.000015300000000,-0.000177000000000,0.209000000000000,0.000668000000000,-0.212000000000000,0.000124000000000,0.000761000000000,0.565000000000000,0.697000000000000,
224000.000000000000000,-0.000112000000000,-0.000095700000000,-0.000080100000000,-0.000000026100000,-0.000000018600000,0.000079100000000,0.000140000000000,-0.000015200000000,-0.000176000000000,0.210000000000000,0.000667000000000,-0.213000000000000,0.000110000000000,0.000754000000000,0.565000000000000,0.697000000000000,
224000.000000000000000,-0.000112000000000,-0.000095700000000,-0.000080200000000,-0.000000027300000,-0.000000006140000,0.000079100000000,0.000140000000000,-0.000015300000000,-0.000177000000000,0.210000000000000,0.000668000000000,-0.213000000000000,0.000114000000000,0.000762000000000,0.566000000000000,0.697000000000000,
224000.000000000000000,-0.000112000000000,-0.000095800000000,-0.000080200000000,-0.000000027900000,0.000000006460000,0.000079100000000,0.000140000000000,-0.000015300000000,-0.000177000000000,0.210000000000000,0.000668000000000,-0.213000000000000,0.000120000000000,0.000764000000000,0.566000000000000,0.697000000000000,
224000.000000000000000,-0.000112000000000,-0.000095900000000,-0.000080400000000,-0.000000028300000,0.000000022900000,0.000079100000000,0.000140000000000,-0.000015400000000,-0.000177000000000,0.210000000000000,0.000669000000000,-0.213000000000000,0.000133000000000,0.000770000000000,0.566000000000000,0.698000000000000,
224000.000000000000000,-0.000112000000000,-0.000095900000000,-0.000080300000000,-0.000000027300000,-0.000000000077900,0.000079100000000,0.000140000000000,-0.000015400000000,-0.000177000000000,0.210000000000000,0.000669000000000,-0.213000000000000,0.000120000000000,0.000761000000000,0.566000000000000,0.698000000000000,
224000.000000000000000,-0.000112000000000,-0.000095900000000,-0.000080300000000,-0.000000026400000,-0.000000013700000,0.000079100000000,0.000140000000000,-0.000015400000000,-0.000177000000000,0.211000000000000,0.000669000000000,-0.214000000000000,0.000114000000000,0.000757000000000,0.566000000000000,0.698000000000000,
224000.000000000000000,-0.000112000000000,-0.000096000000000,-0.000080400000000,-0.000000027600000,0.000000013000000,0.000079200000000,0.000140000000000,-0.000015500000000,-0.000177000000000,0.211000000000000,0.000670000000000,-0.214000000000000,0.000128000000000,0.000767000000000,0.567000000000000,0.699000000000000,
225000.000000000000000,-0.000112000000000,-0.000096100000000,-0.000080500000000,-0.000000029600000,0.000000038700000,0.000079200000000,0.000140000000000,-0.000015500000000,-0.000177000000000,0.211000000000000,0.000670000000000,-0.214000000000000,0.000138000000000,0.000774000000000,0.567000000000000,0.699000000000000,
225000.000000000000000,-0.000112000000000,-0.000096200000000,-0.000080500000000,-0.000000029600000,0.000000042800000,0.000079200000000,0.000140000000000,-0.000015600000000,-0.000177000000000,0.211000000000000,0.000671000000000,-0.214000000000000,0.000142000000000,0.000776000000000,0.567000000000000,0.699000000000000,
225000.000000000000000,-0.000112000000000,-0.000096100000000,-0.000080400000000,-0.000000027300000,0.000000001960000,0.000079200000000,0.000140000000000,-0.000015500000000,-0.000177000000000,0.211000000000000,0.000670000000000,-0.214000000000000,0.000122000000000,0.000762000000000,0.567000000000000,0.700000000000000,
225000.000000000000000,-0.000112000000000,-0.000096100000000,-0.000080400000000,-0.000000026400000,-0.000000011900000,0.000079200000000,0.000140000000000,-0.000015500000000,-0.000177000000000,0.212000000000000,0.000670000000000,-0.215000000000000,0.000116000000000,0.000757000000000,0.567000000000000,0.700000000000000,
225000.000000000000000,-0.000112000000000,-0.000096200000000,-0.000080500000000,-0.000000028200000,0.000000020400000,0.000079200000000,0.000140000000000,-0.000015600000000,-0.000177000000000,0.212000000000000,0.000671000000000,-0.215000000000000,0.000133000000000,0.000770000000000,0.568000000000000,0.700000000000000,
225000.000000000000000,-0.000112000000000,-0.000096200000000,-0.000080500000000,-0.000000028600000,0.000000021800000,0.000079200000000,0.000140000000000,-0.000015600000000,-0.000177000000000,0.212000000000000,0.000671000000000,-0.215000000000000,0.000132000000000,0.000770000000000,0.568000000000000,0.701000000000000,
225000.000000000000000,-0.000112000000000,-0.000096200000000,-0.000080500000000,-0.000000027300000,0.000000001460000,0.000079200000000,0.000140000000000,-0.000015600000000,-0.000177000000000,0.212000000000000,0.000671000000000,-0.215000000000000,0.000123000000000,0.000765000000000,0.568000000000000,0.701000000000000,
225000.000000000000000,-0.000112000000000,-0.000096200000000,-0.000080400000000,-0.000000026100000,-0.000000023700000,0.000079300000000,0.000140000000000,-0.000015500000000,-0.000177000000000,0.212000000000000,0.000670000000000,-0.215000000000000,0.000109000000000,0.000757000000000,0.568000000000000,0.701000000000000,
225000.000000000000000,-0.000112000000000,-0.000096200000000,-0.000080500000000,-0.000000026500000,-0.000000015300000,0.000079300000000,0.000140000000000,-0.000015500000000,-0.000177000000000,0.213000000000000,0.000671000000000,-0.216000000000000,0.000114000000000,0.000759000000000,0.569000000000000,0.702000000000000,
225000.000000000000000,-0.000113000000000,-0.000096400000000,-0.000080600000000,-0.000000027700000,0.000000014900000,0.000079300000000,0.000140000000000,-0.000015700000000,-0.000177000000000,0.213000000000000,0.000672000000000,-0.216000000000000,0.000133000000000,0.000769000000000,0.569000000000000,0.702000000000000,
226000.000000000000000,-0.000113000000000,-0.000096400000000,-0.000080600000000,-0.000000028000000,0.000000013700000,0.000079300000000,0.000140000000000,-0.000015700000000,-0.000177000000000,0.213000000000000,0.000672000000000,-0.216000000000000,0.000129000000000,0.000768000000000,0.569000000000000,0.702000000000000,
226000.000000000000000,-0.000113000000000,-0.000096400000000,-0.000080600000000,-0.000000027600000,0.000000002360000,0.000079300000000,0.000140000000000,-0.000015600000000,-0.000177000000000,0.213000000000000,0.000672000000000,-0.216000000000000,0.000122000000000,0.000765000000000,0.569000000000000,0.702000000000000,
226000.000000000000000,-0.000113000000000,-0.000096400000000,-0.000080600000000,-0.000000027000000,-0.000000004560000,0.000079300000000,0.000140000000000,-0.000015600000000,-0.000177000000000,0.213000000000000,0.000672000000000,-0.216000000000000,0.000120000000000,0.000761000000000,0.569000000000000,0.703000000000000,
226000.000000000000000,-0.000113000000000,-0.000096500000000,-0.000080700000000,-0.000000028400000,0.000000018800000,0.000079300000000,0.000140000000000,-0.000015700000000,-0.000178000000000,0.214000000000000,0.000673000000000,-0.217000000000000,0.000131000000000,0.000767000000000,0.570000000000000,0.703000000000000,
226000.000000000000000,-0.000113000000000,-0.000096600000000,-0.000080800000000,-0.000000029300000,0.000000042400000,0.000079300000000,0.000140000000000,-0.000015900000000,-0.000178000000000,0.214000000000000,0.000674000000000,-0.217000000000000,0.000145000000000,0.000775000000000,0.570000000000000,0.703000000000000,
226000.000000000000000,-0.000113000000000,-0.000096600000000,-0.000080700000000,-0.000000028100000,0.000000017100000,0.000079400000000,0.000140000000000,-0.000015800000000,-0.000178000000000,0.214000000000000,0.000673000000000,-0.217000000000000,0.000131000000000,0.000766000000000,0.570000000000000,0.704000000000000,
226000.000000000000000,-0.000113000000000,-0.000096500000000,-0.000080700000000,-0.000000027400000,-0.000000000085800,0.000079400000000,0.000140000000000,-0.000015700000000,-0.000178000000000,0.214000000000000,0.000673000000000,-0.217000000000000,0.000120000000000,0.000761000000000,0.570000000000000,0.704000000000000,
226000.000000000000000,-0.000113000000000,-0.000096600000000,-0.000080700000000,-0.000000027600000,0.000000006570000,0.000079400000000,0.000140000000000,-0.000015800000000,-0.000178000000000,0.214000000000000,0.000673000000000,-0.217000000000000,0.000125000000000,0.000764000000000,0.570000000000000,0.704000000000000,
226000.000000000000000,-0.000113000000000,-0.000096600000000,-0.000080800000000,-0.000000028300000,0.000000018600000,0.000079400000000,0.000140000000000,-0.000015800000000,-0.000178000000000,0.215000000000000,0.000674000000000,-0.218000000000000,0.000131000000000,0.000767000000000,0.571000000000000,0.705000000000000,
226000.000000000000000,-0.000113000000000,-0.000096700000000,-0.000080800000000,-0.000000028700000,0.000000024600000,0.000079400000000,0.000140000000000,-0.000015900000000,-0.000178000000000,0.215000000000000,0.000674000000000,-0.218000000000000,0.000134000000000,0.000771000000000,0.571000000000000,0.705000000000000,
227000.000000000000000,-0.000113000000000,-0.000096600000000,-0.000080700000000,-0.000000026400000,-0.000000013500000,0.000079400000000,0.000140000000000,-0.000015800000000,-0.000178000000000,0.215000000000000,0.000673000000000,-0.218000000000000,0.000116000000000,0.000758000000000,0.571000000000000,0.705000000000000,
227000.000000000000000,-0.000113000000000,-0.000096600000000,-0.000080700000000,-0.000000026200000,-0.000000019000000,0.000079400000000,0.000140000000000,-0.000015700000000,-0.000178000000000,0.215000000000000,0.000673000000000,-0.218000000000000,0.000112000000000,0.000756000000000,0.571000000000000,0.706000000000000,
227000.000000000000000,-0.000113000000000,-0.000096800000000,-0.000080800000000,-0.000000028200000,0.000000012500000,0.000079500000000,0.000140000000000,-0.000015900000000,-0.000178000000000,0.215000000000000,0.000674000000000,-0.218000000000000,0.000128000000000,0.000767000000000,0.571000000000000,0.706000000000000,
227000.000000000000000,-0.000113000000000,-0.000096800000000,-0.000080900000000,-0.000000028200000,0.000000016500000,0.000079500000000,0.000140000000000,-0.000015900000000,-0.000178000000000,0.216000000000000,0.000675000000000,-0.219000000000000,0.000131000000000,0.000766000000000,0.572000000000000,0.706000000000000,
227000.000000000000000,-0.000113000000000,-0.000096800000000,-0.000080900000000,-0.000000028100000,0.000000015000000,0.000079500000000,0.000140000000000,-0.000015900000000,-0.000178000000000,0.216000000000000,0.000675000000000,-0.219000000000000,0.000130000000000,0.000768000000000,0.572000000000000,0.706000000000000,
227000.000000000000000,-0.000113000000000,-0.000096800000000,-0.000080800000000,-0.000000027100000,-0.000000005680000,0.000079500000000,0.000140000000000,-0.000015900000000,-0.000178000000000,0.216000000000000,0.000675000000000,-0.219000000000000,0.000119000000000,0.000760000000000,0.572000000000000,0.707000000000000,
227000.000000000000000,-0.000113000000000,-0.000096900000000,-0.000080900000000,-0.000000027400000,0.000000002500000,0.000079500000000,0.000141000000000,-0.000015900000000,-0.000178000000000,0.216000000000000,0.000675000000000,-0.219000000000000,0.000124000000000,0.000762000000000,0.572000000000000,0.707000000000000,
227000.000000000000000,-0.000113000000000,-0.000097000000000,-0.000081000000000,-0.000000029100000,0.000000033000000,0.000079500000000,0.000141000000000,-0.000016100000000,-0.000178000000000,0.216000000000000,0.000676000000000,-0.219000000000000,0.000141000000000,0.000773000000000,0.573000000000000,0.707000000000000,
227000.000000000000000,-0.000113000000000,-0.000097000000000,-0.000081000000000,-0.000000028700000,0.000000023300000,0.000079500000000,0.000141000000000,-0.000016000000000,-0.000178000000000,0.217000000000000,0.000676000000000,-0.220000000000000,0.000135000000000,0.000769000000000,0.573000000000000,0.708000000000000,
227000.000000000000000,-0.000113000000000,-0.000097000000000,-0.000081000000000,-0.000000027700000,0.000000006260000,0.000079500000000,0.000141000000000,-0.000016000000000,-0.000178000000000,0.217000000000000,0.000676000000000,-0.220000000000000,0.000127000000000,0.000766000000000,0.573000000000000,0.708000000000000,
228000.000000000000000,-0.000113000000000,-0.000097000000000,-0.000080900000000,-0.000000026900000,-0.000000006730000,0.000079600000000,0.000141000000000,-0.000016000000000,-0.000178000000000,0.217000000000000,0.000676000000000,-0.220000000000000,0.000121000000000,0.000762000000000,0.573000000000000,0.708000000000000,
228000.000000000000000,-0.000113000000000,-0.000097100000000,-0.000081000000000,-0.000000027400000,0.000000003820000,0.000079600000000,0.000141000000000,-0.000016000000000,-0.000178000000000,0.217000000000000,0.000677000000000,-0.220000000000000,0.000127000000000,0.000765000000000,0.573000000000000,0.709000000000000,
228000.000000000000000,-0.000114000000000,-0.000097200000000,-0.000081100000000,-0.000000028300000,0.000000021600000,0.000079600000000,0.000141000000000,-0.000016100000000,-0.000179000000000,0.217000000000000,0.000677000000000,-0.220000000000000,0.000137000000000,0.000772000000000,0.574000000000000,0.709000000000000,
228000.000000000000000,-0.000114000000000,-0.000097100000000,-0.000081000000000,-0.000000027100000,-0.000000002990000,0.000079600000000,0.000141000000000,-0.000016100000000,-0.000179000000000,0.218000000000000,0.000677000000000,-0.221000000000000,0.000124000000000,0.000764000000000,0.574000000000000,0.709000000000000,
228000.000000000000000,-0.000114000000000,-0.000097100000000,-0.000081000000000,-0.000000026300000,-0.000000018400000,0.000079600000000,0.000141000000000,-0.000016000000000,-0.000179000000000,0.218000000000000,0.000676000000000,-0.221000000000000,0.000116000000000,0.000760000000000,0.574000000000000,0.710000000000000,
228000.000000000000000,-0.000114000000000,-0.000097200000000,-0.000081100000000,-0.000000027000000,-0.000000005770000,0.000079600000000,0.000141000000000,-0.000016100000000,-0.000179000000000,0.218000000000000,0.000677000000000,-0.221000000000000,0.000122000000000,0.000764000000000,0.574000000000000,0.710000000000000,
228000.000000000000000,-0.000114000000000,-0.000097300000000,-0.000081100000000,-0.000000027800000,0.000000011300000,0.000079600000000,0.000141000000000,-0.000016200000000,-0.000179000000000,0.218000000000000,0.000678000000000,-0.221000000000000,0.000132000000000,0.000768000000000,0.574000000000000,0.710000000000000,
228000.000000000000000,-0.000114000000000,-0.000097300000000,-0.000081200000000,-0.000000028400000,0.000000021200000,0.000079600000000,0.000141000000000,-0.000016200000000,-0.000179000000000,0.218000000000000,0.000678000000000,-0.221000000000000,0.000137000000000,0.000771000000000,0.575000000000000,0.710000000000000,
228000.000000000000000,-0.000114000000000,-0.000097300000000,-0.000081100000000,-0.000000027100000,-0.000000003580000,0.000079700000000,0.000141000000000,-0.000016100000000,-0.000179000000000,0.219000000000000,0.000678000000000,-0.222000000000000,0.000123000000000,0.000762000000000,0.575000000000000,0.711000000000000,
228000.000000000000000,-0.000114000000000,-0.000097300000000,-0.000081100000000,-0.000000027000000,-0.000000004580000,0.000079700000000,0.000141000000000,-0.000016100000000,-0.000179000000000,0.219000000000000,0.000678000000000,-0.222000000000000,0.000122000000000,0.000761000000000,0.575000000000000,0.711000000000000,
229000.000000000000000,-0.000114000000000,-0.000097400000000,-0.000081200000000,-0.000000028800000,0.000000024700000,0.000079700000000,0.000141000000000,-0.000016200000000,-0.000179000000000,0.219000000000000,0.000679000000000,-0.222000000000000,0.000137000000000,0.000771000000000,0.575000000000000,0.711000000000000,
229000.000000000000000,-0.000114000000000,-0.000097500000000,-0.000081300000000,-0.000000028900000,0.000000029400000,0.000079700000000,0.000141000000000,-0.000016300000000,-0.000179000000000,0.219000000000000,0.000679000000000,-0.222000000000000,0.000140000000000,0.000770000000000,0.575000000000000,0.712000000000000,
229000.000000000000000,-0.000114000000000,-0.000097500000000,-0.000081300000000,-0.000000028200000,0.000000018300000,0.000079700000000,0.000141000000000,-0.000016300000000,-0.000179000000000,0.219000000000000,0.000679000000000,-0.222000000000000,0.000135000000000,0.000768000000000,0.576000000000000,0.712000000000000,
229000.000000000000000,-0.000114000000000,-0.000097400000000,-0.000081200000000,-0.000000027100000,-0.000000005760000,0.000079700000000,0.000141000000000,-0.000016200000000,-0.000179000000000,0.220000000000000,0.000678000000000,-0.223000000000000,0.000121000000000,0.000760000000000,0.576000000000000,0.712000000000000,
229000.000000000000000,-0.000114000000000,-0.000097500000000,-0.000081200000000,-0.000000027100000,-0.000000002580000,0.000079700000000,0.000141000000000,-0.000016200000000,-0.000179000000000,0.220000000000000,0.000679000000000,-0.223000000000000,0.000124000000000,0.000762000000000,0.576000000000000,0.713000000000000,
229000.000000000000000,-0.000114000000000,-0.000097600000000,-0.000081400000000,-0.000000028400000,0.000000021200000,0.000079800000000,0.000141000000000,-0.000016400000000,-0.000179000000000,0.220000000000000,0.000680000000000,-0.223000000000000,0.000137000000000,0.000771000000000,0.576000000000000,0.713000000000000,
229000.000000000000000,-0.000114000000000,-0.000097600000000,-0.000081300000000,-0.000000028000000,0.000000011000000,0.000079800000000,0.000141000000000,-0.000016300000000,-0.000179000000000,0.220000000000000,0.000680000000000,-0.223000000000000,0.000131000000000,0.000767000000000,0.576000000000000,0.713000000000000,
229000.000000000000000,-0.000114000000000,-0.000097600000000,-0.000081300000000,-0.000000026700000,-0.000000009690000,0.000079800000000,0.000141000000000,-0.000016300000000,-0.000179000000000,0.220000000000000,0.000680000000000,-0.223000000000000,0.000122000000000,0.000762000000000,0.577000000000000,0.714000000000000,
229000.000000000000000,-0.000114000000000,-0.000097600000000,-0.000081300000000,-0.000000026400000,-0.000000017100000,0.000079800000000,0.000141000000000,-0.000016300000000,-0.000179000000000,0.221000000000000,0.000679000000000,-0.224000000000000,0.000118000000000,0.000759000000000,0.577000000000000,0.714000000000000,
229000.000000000000000,-0.000114000000000,-0.000097700000000,-0.000081400000000,-0.000000027500000,0.000000002510000,0.000079800000000,0.000141000000000,-0.000016400000000,-0.000179000000000,0.221000000000000,0.000680000000000,-0.224000000000000,0.000128000000000,0.000765000000000,0.577000000000000,0.714000000000000,
230000.000000000000000,-0.000114000000000,-0.000097800000000,-0.000081500000000,-0.000000028400000,0.000000021100000,0.000079800000000,0.000141000000000,-0.000016500000000,-0.000179000000000,0.221000000000000,0.000681000000000,-0.224000000000000,0.000139000000000,0.000772000000000,0.577000000000000,0.714000000000000,
230000.000000000000000,-0.000114000000000,-0.000097800000000,-0.000081400000000,-0.000000027700000,0.000000005800000,0.000079800000000,0.000141000000000,-0.000016400000000,-0.000179000000000,0.221000000000000,0.000681000000000,-0.224000000000000,0.000129000000000,0.000766000000000,0.578000000000000,0.715000000000000,
230000.000000000000000,-0.000114000000000,-0.000097800000000,-0.000081400000000,-0.000000027000000,-0.000000005550000,0.000079800000000,0.000141000000000,-0.000016400000000,-0.000179000000000,0.221000000000000,0.000681000000000,-0.225000000000000,0.000124000000000,0.000763000000000,0.578000000000000,0.715000000000000,
230000.000000000000000,-0.000115000000000,-0.000097800000000,-0.000081500000000,-0.000000027400000,0.000000003050000,0.000079900000000,0.000141000000000,-0.000016500000000,-0.000180000000000,0.222000000000000,0.000681000000000,-0.225000000000000,0.000129000000000,0.000764000000000,0.578000000000000,0.715000000000000,
230000.000000000000000,-0.000115000000000,-0.000097900000000,-0.000081500000000,-0.000000028600000,0.000000022400000,0.000079900000000,0.000141000000000,-0.000016500000000,-0.000180000000000,0.222000000000000,0.000682000000000,-0.225000000000000,0.000138000000000,0.000770000000000,0.578000000000000,0.716000000000000,
230000.000000000000000,-0.000115000000000,-0.000098000000000,-0.000081600000000,-0.000000028500000,0.000000023200000,0.000079900000000,0.000141000000000,-0.000016600000000,-0.000180000000000,0.222000000000000,0.000682000000000,-0.225000000000000,0.000140000000000,0.000770000000000,0.578000000000000,0.716000000000000,
230000.000000000000000,-0.000115000000000,-0.000097900000000,-0.000081500000000,-0.000000027200000,-0.000000002910000,0.000079900000000,0.000141000000000,-0.000016500000000,-0.000180000000000,0.222000000000000,0.000681000000000,-0.225000000000000,0.000125000000000,0.000762000000000,0.579000000000000,0.716000000000000,
230000.000000000000000,-0.000115000000000,-0.000097900000000,-0.000081500000000,-0.000000027200000,-0.000000003740000,0.000079900000000,0.000141000000000,-0.000016500000000,-0.000180000000000,0.222000000000000,0.000682000000000,-0.226000000000000,0.000124000000000,0.000762000000000,0.579000000000000,0.717000000000000,
230000.000000000000000,-0.000115000000000,-0.000098000000000,-0.000081600000000,-0.000000027900000,0.000000011400000,0.000079900000000,0.000141000000000,-0.000016600000000,-0.000180000000000,0.223000000000000,0.000682000000000,-0.226000000000000,0.000133000000000,0.000767000000000,0.579000000000000,0.717000000000000,
230000.000000000000000,-0.000115000000000,-0.000098000000000,-0.000081600000000,-0.000000028100000,0.000000014400000,0.000079900000000,0.000141000000000,-0.000016600000000,-0.000180000000000,0.223000000000000,0.000683000000000,-0.226000000000000,0.000135000000000,0.000767000000000,0.579000000000000,0.717000000000000,
231000.000000000000000,-0.000115000000000,-0.000098100000000,-0.000081600000000,-0.000000027500000,0.000000003890000,0.000079900000000,0.000141000000000,-0.000016600000000,-0.000180000000000,0.223000000000000,0.000683000000000,-0.226000000000000,0.000130000000000,0.000765000000000,0.579000000000000,0.717000000000000,
231000.000000000000000,-0.000115000000000,-0.000098000000000,-0.000081500000000,-0.000000026500000,-0.000000014900000,0.000080000000000,0.000141000000000,-0.000016500000000,-0.000180000000000,0.223000000000000,0.000682000000000,-0.226000000000000,0.000120000000000,0.000760000000000,0.580000000000000,0.718000000000000,
231000.000000000000000,-0.000115000000000,-0.000098100000000,-0.000081600000000,-0.000000027400000,0.000000000007630,0.000080000000000,0.000141000000000,-0.000016600000000,-0.000180000000000,0.223000000000000,0.000683000000000,-0.227000000000000,0.000128000000000,0.000765000000000,0.580000000000000,0.718000000000000,
231000.000000000000000,-0.000115000000000,-0.000098200000000,-0.000081700000000,-0.000000028300000,0.000000019200000,0.000080000000000,0.000142000000000,-0.000016700000000,-0.000180000000000,0.224000000000000,0.000684000000000,-0.227000000000000,0.000139000000000,0.000771000000000,0.580000000000000,0.718000000000000,
231000.000000000000000,-0.000115000000000,-0.000098200000000,-0.000081700000000,-0.000000027800000,0.000000008690000,0.000080000000000,0.000142000000000,-0.000016700000000,-0.000180000000000,0.224000000000000,0.000684000000000,-0.227000000000000,0.000134000000000,0.000767000000000,0.580000000000000,0.719000000000000,
231000.000000000000000,-0.000115000000000,-0.000098200000000,-0.000081700000000,-0.000000027100000,-0.000000002750000,0.000080000000000,0.000142000000000,-0.000016700000000,-0.000180000000000,0.224000000000000,0.000684000000000,-0.227000000000000,0.000128000000000,0.000765000000000,0.580000000000000,0.719000000000000,
231000.000000000000000,-0.000115000000000,-0.000098200000000,-0.000081700000000,-0.000000026900000,-0.000000006840000,0.000080000000000,0.000142000000000,-0.000016700000000,-0.000180000000000,0.224000000000000,0.000684000000000,-0.227000000000000,0.000125000000000,0.000763000000000,0.581000000000000,0.719000000000000,
231000.000000000000000,-0.000115000000000,-0.000098300000000,-0.000081800000000,-0.000000028100000,0.000000013600000,0.000080000000000,0.000142000000000,-0.000016700000000,-0.000180000000000,0.224000000000000,0.000685000000000,-0.228000000000000,0.000136000000000,0.000769000000000,0.581000000000000,0.720000000000000,
231000.000000000000000,-0.000115000000000,-0.000098400000000,-0.000081800000000,-0.000000028500000,0.000000022100000,0.000080000000000,0.000142000000000,-0.000016800000000,-0.000180000000000,0.225000000000000,0.000685000000000,-0.228000000000000,0.000141000000000,0.000772000000000,0.581000000000000,0.720000000000000,
231000.000000000000000,-0.000115000000000,-0.000098300000000,-0.000081800000000,-0.000000027300000,-0.000000001720000,0.000080100000000,0.000142000000000,-0.000016700000000,-0.000180000000000,0.225000000000000,0.000684000000000,-0.228000000000000,0.000128000000000,0.000763000000000,0.581000000000000,0.720000000000000,
232000.000000000000000,-0.000115000000000,-0.000098400000000,-0.000081800000000,-0.000000026800000,-0.000000009170000,0.000080100000000,0.000142000000000,-0.000016700000000,-0.000180000000000,0.225000000000000,0.000684000000000,-0.228000000000000,0.000124000000000,0.000761000000000,0.581000000000000,0.721000000000000,
232000.000000000000000,-0.000115000000000,-0.000098400000000,-0.000081800000000,-0.000000027300000,-0.000000000570000,0.000080100000000,0.000142000000000,-0.000016800000000,-0.000180000000000,0.225000000000000,0.000685000000000,-0.228000000000000,0.000128000000000,0.000763000000000,0.582000000000000,0.721000000000000,
232000.000000000000000,-0.000115000000000,-0.000098500000000,-0.000081900000000,-0.000000028300000,0.000000016300000,0.000080100000000,0.000142000000000,-0.000016800000000,-0.000181000000000,0.225000000000000,0.000686000000000,-0.229000000000000,0.000137000000000,0.000768000000000,0.582000000000000,0.721000000000000,
232000.000000000000000,-0.000116000000000,-0.000098500000000,-0.000081900000000,-0.000000028100000,0.000000013200000,0.000080100000000,0.000142000000000,-0.000016800000000,-0.000181000000000,0.226000000000000,0.000686000000000,-0.229000000000000,0.000136000000000,0.000768000000000,0.582000000000000,0.721000000000000,
232000.000000000000000,-0.000115000000000,-0.000098500000000,-0.000081800000000,-0.000000026700000,-0.000000012200000,0.000080100000000,0.000142000000000,-0.000016800000000,-0.000181000000000,0.226000000000000,0.000685000000000,-0.229000000000000,0.000122000000000,0.000759000000000,0.582000000000000,0.722000000000000,
232000.000000000000000,-0.000116000000000,-0.000098500000000,-0.000081900000000,-0.000000027100000,-0.000000005470000,0.000080100000000,0.000142000000000,-0.000016800000000,-0.000181000000000,0.226000000000000,0.000686000000000,-0.229000000000000,0.000126000000000,0.000762000000000,0.582000000000000,0.722000000000000,
232000.000000000000000,-0.000116000000000,-0.000098600000000,-0.000082000000000,-0.000000028000000,0.000000012800000,0.000080200000000,0.000142000000000,-0.000016900000000,-0.000181000000000,0.226000000000000,0.000686000000000,-0.229000000000000,0.000136000000000,0.000768000000000,0.583000000000000,0.722000000000000,
232000.000000000000000,-0.000116000000000,-0.000098700000000,-0.000082000000000,-0.000000028300000,0.000000017100000,0.000080200000000,0.000142000000000,-0.000016900000000,-0.000181000000000,0.226000000000000,0.000687000000000,-0.230000000000000,0.000139000000000,0.000769000000000,0.583000000000000,0.723000000000000,
232000.000000000000000,-0.000116000000000,-0.000098700000000,-0.000082000000000,-0.000000027700000,0.000000006300000,0.000080200000000,0.000142000000000,-0.000016900000000,-0.000181000000000,0.227000000000000,0.000687000000000,-0.230000000000000,0.000134000000000,0.000767000000000,0.583000000000000,0.723000000000000,
232000.000000000000000,-0.000116000000000,-0.000098700000000,-0.000081900000000,-0.000000026600000,-0.000000012500000,0.000080200000000,0.000142000000000,-0.000016900000000,-0.000181000000000,0.227000000000000,0.000686000000000,-0.230000000000000,0.000124000000000,0.000761000000000,0.583000000000000,0.723000000000000,
233000.000000000000000,-0.000116000000000,-0.000098700000000,-0.000082000000000,-0.000000027400000,0.000000002730000,0.000080200000000,0.000142000000000,-0.000017000000000,-0.000181000000000,0.227000000000000,0.000687000000000,-0.230000000000000,0.000133000000000,0.000766000000000,0.583000000000000,0.724000000000000,
233000.000000000000000,-0.000116000000000,-0.000098800000000,-0.000082100000000,-0.000000028300000,0.000000018300000,0.000080200000000,0.000142000000000,-0.000017000000000,-0.000181000000000,0.227000000000000,0.000688000000000,-0.230000000000000,0.000141000000000,0.000771000000000,0.584000000000000,0.724000000000000,
233000.000000000000000,-0.000116000000000,-0.000098800000000,-0.000082100000000,-0.000000027500000,0.000000004900000,0.000080200000000,0.000142000000000,-0.000017000000000,-0.000181000000000,0.227000000000000,0.000688000000000,-0.231000000000000,0.000134000000000,0.000767000000000,0.584000000000000,0.724000000000000,
233000.000000000000000,-0.000116000000000,-0.000098800000000,-0.000082000000000,-0.000000026900000,-0.000000007160000,0.000080200000000,0.000142000000000,-0.000017000000000,-0.000181000000000,0.228000000000000,0.000687000000000,-0.231000000000000,0.000127000000000,0.000764000000000,0.584000000000000,0.724000000000000,
233000.000000000000000,-0.000116000000000,-0.000098800000000,-0.000082000000000,-0.000000026700000,-0.000000011500000,0.000080300000000,0.000142000000000,-0.000017000000000,-0.000181000000000,0.228000000000000,0.000687000000000,-0.231000000000000,0.000124000000000,0.000761000000000,0.584000000000000,0.725000000000000,
233000.000000000000000,-0.000116000000000,-0.000098900000000,-0.000082100000000,-0.000000027700000,0.000000006830000,0.000080300000000,0.000142000000000,-0.000017100000000,-0.000181000000000,0.228000000000000,0.000688000000000,-0.231000000000000,0.000135000000000,0.000766000000000,0.584000000000000,0.725000000000000,
233000.000000000000000,-0.000116000000000,-0.000099000000000,-0.000082200000000,-0.000000028200000,0.000000015400000,0.000080300000000,0.000142000000000,-0.000017100000000,-0.000181000000000,0.228000000000000,0.000689000000000,-0.231000000000000,0.000139000000000,0.000769000000000,0.585000000000000,0.725000000000000,
233000.000000000000000,-0.000116000000000,-0.000098900000000,-0.000082100000000,-0.000000027200000,-0.000000004070000,0.000080300000000,0.000142000000000,-0.000017000000000,-0.000181000000000,0.229000000000000,0.000688000000000,-0.232000000000000,0.000128000000000,0.000762000000000,0.585000000000000,0.726000000000000,
233000.000000000000000,-0.000116000000000,-0.000099000000000,-0.000082100000000,-0.000000026900000,-0.000000007390000,0.000080300000000,0.000142000000000,-0.000017100000000,-0.000181000000000,0.229000000000000,0.000688000000000,-0.232000000000000,0.000126000000000,0.000762000000000,0.585000000000000,0.726000000000000,
233000.000000000000000,-0.000116000000000,-0.000099000000000,-0.000082200000000,-0.000000027600000,0.000000003740000,0.000080300000000,0.000142000000000,-0.000017100000000,-0.000181000000000,0.229000000000000,0.000689000000000,-0.232000000000000,0.000132000000000,0.000764000000000,0.585000000000000,0.726000000000000,
234000.000000000000000,-0.000116000000000,-0.000099100000000,-0.000082300000000,-0.000000028400000,0.000000017300000,0.000080300000000,0.000142000000000,-0.000017200000000,-0.000181000000000,0.229000000000000,0.000690000000000,-0.232000000000000,0.000140000000000,0.000768000000000,0.585000000000000,0.727000000000000,
234000.000000000000000,-0.000116000000000,-0.000099100000000,-0.000082300000000,-0.000000028000000,0.000000012400000,0.000080300000000,0.000142000000000,-0.000017200000000,-0.000181000000000,0.229000000000000,0.000690000000000,-0.232000000000000,0.000138000000000,0.000768000000000,0.586000000000000,0.727000000000000,
234000.000000000000000,-0.000116000000000,-0.000099100000000,-0.000082200000000,-0.000000027000000,-0.000000007560000,0.000080400000000,0.000142000000000,-0.000017100000000,-0.000181000000000,0.230000000000000,0.000689000000000,-0.233000000000000,0.000127000000000,0.000762000000000,0.586000000000000,0.727000000000000,
234000.000000000000000,-0.000116000000000,-0.000099200000000,-0.000082300000000,-0.000000027100000,-0.000000002560000,0.000080400000000,0.000142000000000,-0.000017200000000,-0.000182000000000,0.230000000000000,0.000690000000000,-0.233000000000000,0.000131000000000,0.000764000000000,0.586000000000000,0.727000000000000,
234000.000000000000000,-0.000117000000000,-0.000099300000000,-0.000082300000000,-0.000000027900000,0.000000010500000,0.000080400000000,0.000142000000000,-0.000017200000000,-0.000182000000000,0.230000000000000,0.000690000000000,-0.233000000000000,0.000138000000000,0.000768000000000,0.586000000000000,0.728000000000000,
234000.000000000000000,-0.000117000000000,-0.000099300000000,-0.000082300000000,-0.000000027900000,0.000000010500000,0.000080400000000,0.000142000000000,-0.000017300000000,-0.000182000000000,0.230000000000000,0.000691000000000,-0.233000000000000,0.000138000000000,0.000768000000000,0.586000000000000,0.728000000000000,
234000.000000000000000,-0.000117000000000,-0.000099300000000,-0.000082300000000,-0.000000027000000,-0.000000004350000,0.000080400000000,0.000142000000000,-0.000017200000000,-0.000182000000000,0.230000000000000,0.000690000000000,-0.233000000000000,0.000131000000000,0.000765000000000,0.587000000000000,0.728000000000000,
234000.000000000000000,-0.000117000000000,-0.000099300000000,-0.000082300000000,-0.000000026400000,-0.000000016500000,0.000080400000000,0.000142000000000,-0.000017200000000,-0.000182000000000,0.231000000000000,0.000690000000000,-0.234000000000000,0.000124000000000,0.000761000000000,0.587000000000000,0.729000000000000,
234000.000000000000000,-0.000117000000000,-0.000099400000000,-0.000082400000000,-0.000000027300000,0.000000000067200,0.000080400000000,0.000142000000000,-0.000017300000000,-0.000182000000000,0.231000000000000,0.000691000000000,-0.234000000000000,0.000133000000000,0.000766000000000,0.587000000000000,0.729000000000000,
234000.000000000000000,-0.000117000000000,-0.000099400000000,-0.000082400000000,-0.000000028000000,0.000000011200000,0.000080400000000,0.000142000000000,-0.000017300000000,-0.000182000000000,0.231000000000000,0.000691000000000,-0.234000000000000,0.000139000000000,0.000768000000000,0.587000000000000,0.729000000000000,
235000.000000000000000,-0.000117000000000,-0.000099400000000,-0.000082400000000,-0.000000027500000,0.000000001350000,0.000080500000000,0.000143000000000,-0.000017300000000,-0.000182000000000,0.231000000000000,0.000691000000000,-0.234000000000000,0.000133000000000,0.000765000000000,0.587000000000000,0.730000000000000,
235000.000000000000000,-0.000117000000000,-0.000099400000000,-0.000082400000000,-0.000000026800000,-0.000000008530000,0.000080500000000,0.000143000000000,-0.000017300000000,-0.000182000000000,0.231000000000000,0.000691000000000,-0.234000000000000,0.000128000000000,0.000762000000000,0.588000000000000,0.730000000000000,
235000.000000000000000,-0.000117000000000,-0.000099400000000,-0.000082400000000,-0.000000027000000,-0.000000006280000,0.000080500000000,0.000143000000000,-0.000017300000000,-0.000182000000000,0.232000000000000,0.000691000000000,-0.235000000000000,0.000128000000000,0.000762000000000,0.588000000000000,0.730000000000000,
235000.000000000000000,-0.000117000000000,-0.000099600000000,-0.000082500000000,-0.000000028200000,0.000000014900000,0.000080500000000,0.000143000000000,-0.000017400000000,-0.000182000000000,0.232000000000000,0.000692000000000,-0.235000000000000,0.000140000000000,0.000768000000000,0.588000000000000,0.731000000000000,
235000.000000000000000,-0.000117000000000,-0.000099600000000,-0.000082500000000,-0.000000028300000,0.000000016800000,0.000080500000000,0.000143000000000,-0.000017400000000,-0.000182000000000,0.232000000000000,0.000693000000000,-0.235000000000000,0.000141000000000,0.000769000000000,0.588000000000000,0.731000000000000,
235000.000000000000000,-0.000117000000000,-0.000099600000000,-0.000082500000000,-0.000000027300000,-0.000000001930000,0.000080500000000,0.000143000000000,-0.000017400000000,-0.000182000000000,0.232000000000000,0.000692000000000,-0.235000000000000,0.000131000000000,0.000763000000000,0.588000000000000,0.731000000000000,
235000.000000000000000,-0.000117000000000,-0.000099600000000,-0.000082500000000,-0.000000027000000,-0.000000005910000,0.000080500000000,0.000143000000000,-0.000017400000000,-0.000182000000000,0.232000000000000,0.000692000000000,-0.235000000000000,0.000130000000000,0.000763000000000,0.589000000000000,0.731000000000000,
235000.000000000000000,-0.000117000000000,-0.000099700000000,-0.000082600000000,-0.000000027500000,0.000000002790000,0.000080500000000,0.000143000000000,-0.000017500000000,-0.000182000000000,0.233000000000000,0.000693000000000,-0.236000000000000,0.000135000000000,0.000765000000000,0.589000000000000,0.732000000000000,
235000.000000000000000,-0.000117000000000,-0.000099700000000,-0.000082600000000,-0.000000028200000,0.000000014800000,0.000080600000000,0.000143000000000,-0.000017500000000,-0.000182000000000,0.233000000000000,0.000694000000000,-0.236000000000000,0.000142000000000,0.000770000000000,0.589000000000000,0.732000000000000,
235000.000000000000000,-0.000117000000000,-0.000099700000000,-0.000082600000000,-0.000000027500000,0.000000003570000,0.000080600000000,0.000143000000000,-0.000017500000000,-0.000182000000000,0.233000000000000,0.000693000000000,-0.236000000000000,0.000137000000000,0.000767000000000,0.589000000000000,0.732000000000000,
236000.000000000000000,-0.000117000000000,-0.000099700000000,-0.000082600000000,-0.000000026400000,-0.000000015600000,0.000080600000000,0.000143000000000,-0.000017500000000,-0.000182000000000,0.233000000000000,0.000693000000000,-0.236000000000000,0.000126000000000,0.000761000000000,0.589000000000000,0.733000000000000,
236000.000000000000000,-0.000117000000000,-0.000099800000000,-0.000082600000000,-0.000000026800000,-0.000000008700000,0.000080600000000,0.000143000000000,-0.000017500000000,-0.000182000000000,0.233000000000000,0.000694000000000,-0.237000000000000,0.000130000000000,0.000764000000000,0.590000000000000,0.733000000000000,
236000.000000000000000,-0.000117000000000,-0.000099800000000,-0.000082700000000,-0.000000027500000,0.000000003510000,0.000080600000000,0.000143000000000,-0.000017600000000,-0.000182000000000,0.234000000000000,0.000694000000000,-0.237000000000000,0.000137000000000,0.000767000000000,0.590000000000000,0.733000000000000,
236000.000000000000000,-0.000117000000000,-0.000099900000000,-0.000082700000000,-0.000000027800000,0.000000007430000,0.000080600000000,0.000143000000000,-0.000017600000000,-0.000183000000000,0.234000000000000,0.000694000000000,-0.237000000000000,0.000139000000000,0.000768000000000,0.590000000000000,0.734000000000000,
236000.000000000000000,-0.000117000000000,-0.000099900000000,-0.000082700000000,-0.000000027000000,-0.000000005990000,0.000080600000000,0.000143000000000,-0.000017600000000,-0.000183000000000,0.234000000000000,0.000694000000000,-0.237000000000000,0.000132000000000,0.000764000000000,0.590000000000000,0.734000000000000,
236000.000000000000000,-0.000117000000000,-0.000099900000000,-0.000082700000000,-0.000000026500000,-0.000000014500000,0.000080600000000,0.000143000000000,-0.000017600000000,-0.000183000000000,0.234000000000000,0.000694000000000,-0.237000000000000,0.000126000000000,0.000760000000000,0.590000000000000,0.734000000000000,
236000.000000000000000,-0.000118000000000,-0.000100000000000,-0.000082700000000,-0.000000027600000,0.000000004270000,0.000080700000000,0.000143000000000,-0.000017600000000,-0.000183000000000,0.234000000000000,0.000695000000000,-0.238000000000000,0.000137000000000,0.000766000000000,0.591000000000000,0.734000000000000,
236000.000000000000000,-0.000118000000000,-0.000100000000000,-0.000082800000000,-0.000000028100000,0.000000013100000,0.000080700000000,0.000143000000000,-0.000017700000000,-0.000183000000000,0.235000000000000,0.000695000000000,-0.238000000000000,0.000141000000000,0.000767000000000,0.591000000000000,0.735000000000000,
236000.000000000000000,-0.000118000000000,-0.000100000000000,-0.000082800000000,-0.000000027800000,0.000000006360000,0.000080700000000,0.000143000000000,-0.000017700000000,-0.000183000000000,0.235000000000000,0.000695000000000,-0.238000000000000,0.000137000000000,0.000765000000000,0.591000000000000,0.735000000000000,
236000.000000000000000,-0.000118000000000,-0.000100000000000,-0.000082800000000,-0.000000027100000,-0.000000004210000,0.000080700000000,0.000143000000000,-0.000017700000000,-0.000183000000000,0.235000000000000,0.000695000000000,-0.238000000000000,0.000132000000000,0.000763000000000,0.591000000000000,0.735000000000000,
237000.000000000000000,-0.000118000000000,-0.000100000000000,-0.000082800000000,-0.000000027100000,-0.000000004920000,0.000080700000000,0.000143000000000,-0.000017700000000,-0.000183000000000,0.235000000000000,0.000695000000000,-0.238000000000000,0.000131000000000,0.000762000000000,0.591000000000000,0.736000000000000,
237000.000000000000000,-0.000118000000000,-0.000100000000000,-0.000082900000000,-0.000000028100000,0.000000012800000,0.000080700000000,0.000143000000000,-0.000017800000000,-0.000183000000000,0.235000000000000,0.000696000000000,-0.239000000000000,0.000141000000000,0.000768000000000,0.592000000000000,0.736000000000000,
237000.000000000000000,-0.000118000000000,-0.000100000000000,-0.000082900000000,-0.000000028000000,0.000000009900000,0.000080700000000,0.000143000000000,-0.000017800000000,-0.000183000000000,0.236000000000000,0.000696000000000,-0.239000000000000,0.000140000000000,0.000767000000000,0.592000000000000,0.736000000000000,
237000.000000000000000,-0.000118000000000,-0.000100000000000,-0.000082800000000,-0.000000026900000,-0.000000007180000,0.000080800000000,0.000143000000000,-0.000017700000000,-0.000183000000000,0.236000000000000,0.000696000000000,-0.239000000000000,0.000131000000000,0.000763000000000,0.592000000000000,0.736000000000000,
237000.000000000000000,-0.000118000000000,-0.000100000000000,-0.000082900000000,-0.000000026700000,-0.000000010100000,0.000080800000000,0.000143000000000,-0.000017700000000,-0.000183000000000,0.236000000000000,0.000696000000000,-0.239000000000000,0.000130000000000,0.000763000000000,0.592000000000000,0.737000000000000,
237000.000000000000000,-0.000118000000000,-0.000100000000000,-0.000082900000000,-0.000000027100000,-0.000000003820000,0.000080800000000,0.000143000000000,-0.000017800000000,-0.000183000000000,0.236000000000000,0.000697000000000,-0.239000000000000,0.000134000000000,0.000765000000000,0.592000000000000,0.737000000000000,
237000.000000000000000,-0.000118000000000,-0.000100000000000,-0.000083000000000,-0.000000027800000,0.000000008070000,0.000080800000000,0.000143000000000,-0.000017900000000,-0.000183000000000,0.236000000000000,0.000697000000000,-0.240000000000000,0.000141000000000,0.000769000000000,0.593000000000000,0.737000000000000,
237000.000000000000000,-0.000118000000000,-0.000100000000000,-0.000083000000000,-0.000000027200000,-0.000000001670000,0.000080800000000,0.000143000000000,-0.000017800000000,-0.000183000000000,0.237000000000000,0.000697000000000,-0.240000000000000,0.000136000000000,0.000766000000000,0.593000000000000,0.738000000000000,
237000.000000000000000,-0.000118000000000,-0.000100000000000,-0.000082900000000,-0.000000026400000,-0.000000015900000,0.000080800000000,0.000143000000000,-0.000017800000000,-0.000183000000000,0.237000000000000,0.000697000000000,-0.240000000000000,0.000128000000000,0.000762000000000,0.593000000000000,0.738000000000000,
237000.000000000000000,-0.000118000000000,-0.000100000000000,-0.000083000000000,-0.000000027000000,-0.000000005610000,0.000080800000000,0.000143000000000,-0.000017900000000,-0.000183000000000,0.237000000000000,0.000698000000000,-0.240000000000000,0.000134000000000,0.000765000000000,0.593000000000000,0.738000000000000,
238000.000000000000000,-0.000118000000000,-0.000100000000000,-0.000083000000000,-0.000000027700000,0.000000005950000,0.000080800000000,0.000143000000000,-0.000017900000000,-0.000183000000000,0.237000000000000,0.000698000000000,-0.240000000000000,0.000140000000000,0.000767000000000,0.593000000000000,0.739000000000000,
238000.000000000000000,-0.000118000000000,-0.000101000000000,-0.000083100000000,-0.000000027800000,0.000000008730000,0.000080900000000,0.000143000000000,-0.000017900000000,-0.000183000000000,0.237000000000000,0.000698000000000,-0.241000000000000,0.000141000000000,0.000768000000000,0.594000000000000,0.739000000000000,
238000.000000000000000,-0.000118000000000,-0.000100000000000,-0.000083000000000,-0.000000027100000,-0.000000003980000,0.000080900000000,0.000143000000000,-0.000017900000000,-0.000183000000000,0.238000000000000,0.000698000000000,-0.241000000000000,0.000134000000000,0.000764000000000,0.594000000000000,0.739000000000000,
238000.000000000000000,-0.000118000000000,-0.000101000000000,-0.000083000000000,-0.000000026800000,-0.000000010600000,0.000080900000000,0.000143000000000,-0.000017900000000,-0.000183000000000,0.238000000000000,0.000698000000000,-0.241000000000000,0.000130000000000,0.000761000000000,0.594000000000000,0.739000000000000,
238000.000000000000000,-0.000118000000000,-0.000101000000000,-0.000083100000000,-0.000000027800000,0.000000006120000,0.000080900000000,0.000143000000000,-0.000018000000000,-0.000184000000000,0.238000000000000,0.000699000000000,-0.241000000000000,0.000139000000000,0.000766000000000,0.594000000000000,0.740000000000000,
238000.000000000000000,-0.000119000000000,-0.000101000000000,-0.000083100000000,-0.000000028200000,0.000000012300000,0.000080900000000,0.000143000000000,-0.000018000000000,-0.000184000000000,0.238000000000000,0.000699000000000,-0.241000000000000,0.000142000000000,0.000767000000000,0.594000000000000,0.740000000000000,
238000.000000000000000,-0.000119000000000,-0.000101000000000,-0.000083100000000,-0.000000027600000,0.000000003140000,0.000080900000000,0.000143000000000,-0.000018000000000,-0.000184000000000,0.238000000000000,0.000699000000000,-0.242000000000000,0.000138000000000,0.000765000000000,0.595000000000000,0.740000000000000,
238000.000000000000000,-0.000119000000000,-0.000101000000000,-0.000083100000000,-0.000000026900000,-0.000000009460000,0.000080900000000,0.000143000000000,-0.000018000000000,-0.000184000000000,0.239000000000000,0.000699000000000,-0.242000000000000,0.000131000000000,0.000761000000000,0.595000000000000,0.741000000000000,
238000.000000000000000,-0.000119000000000,-0.000101000000000,-0.000083100000000,-0.000000026900000,-0.000000008360000,0.000080900000000,0.000144000000000,-0.000018000000000,-0.000184000000000,0.239000000000000,0.000699000000000,-0.242000000000000,0.000132000000000,0.000762000000000,0.595000000000000,0.741000000000000,
238000.000000000000000,-0.000119000000000,-0.000101000000000,-0.000083200000000,-0.000000027900000,0.000000008280000,0.000081000000000,0.000144000000000,-0.000018100000000,-0.000184000000000,0.239000000000000,0.000700000000000,-0.242000000000000,0.000142000000000,0.000768000000000,0.595000000000000,0.741000000000000,
239000.000000000000000,-0.000119000000000,-0.000101000000000,-0.000083200000000,-0.000000027700000,0.000000005170000,0.000081000000000,0.000144000000000,-0.000018100000000,-0.000184000000000,0.239000000000000,0.000700000000000,-0.242000000000000,0.000141000000000,0.000767000000000,0.595000000000000,0.742000000000000,
239000.000000000000000,-0.000119000000000,-0.000101000000000,-0.000083200000000,-0.000000026800000,-0.000000009560000,0.000081000000000,0.000144000000000,-0.000018100000000,-0.000184000000000,0.239000000000000,0.000700000000000,-0.243000000000000,0.000133000000000,0.000763000000000,0.596000000000000,0.742000000000000,
239000.000000000000000,-0.000119000000000,-0.000101000000000,-0.000083200000000,-0.000000026500000,-0.000000013400000,0.000081000000000,0.000144000000000,-0.000018100000000,-0.000184000000000,0.240000000000000,0.000700000000000,-0.243000000000000,0.000132000000000,0.000763000000000,0.596000000000000,0.742000000000000,
239000.000000000000000,-0.000119000000000,-0.000101000000000,-0.000083300000000,-0.000000027100000,-0.000000004340000,0.000081000000000,0.000144000000000,-0.000018100000000,-0.000184000000000,0.240000000000000,0.000701000000000,-0.243000000000000,0.000136000000000,0.000765000000000,0.596000000000000,0.742000000000000,
239000.000000000000000,-0.000119000000000,-0.000101000000000,-0.000083400000000,-0.000000027800000,0.000000008530000,0.000081000000000,0.000144000000000,-0.000018200000000,-0.000184000000000,0.240000000000000,0.000701000000000,-0.243000000000000,0.000144000000000,0.000769000000000,0.596000000000000,0.743000000000000,
239000.000000000000000,-0.000119000000000,-0.000101000000000,-0.000083300000000,-0.000000027300000,-0.000000001030000,0.000081000000000,0.000144000000000,-0.000018200000000,-0.000184000000000,0.240000000000000,0.000701000000000,-0.243000000000000,0.000138000000000,0.000766000000000,0.596000000000000,0.743000000000000,
239000.000000000000000,-0.000119000000000,-0.000101000000000,-0.000083300000000,-0.000000026600000,-0.000000013100000,0.000081000000000,0.000144000000000,-0.000018200000000,-0.000184000000000,0.241000000000000,0.000701000000000,-0.244000000000000,0.000131000000000,0.000762000000000,0.596000000000000,0.743000000000000,
239000.000000000000000,-0.000119000000000,-0.000101000000000,-0.000083300000000,-0.000000027000000,-0.000000006070000,0.000081100000000,0.000144000000000,-0.000018200000000,-0.000184000000000,0.241000000000000,0.000701000000000,-0.244000000000000,0.000135000000000,0.000764000000000,0.597000000000000,0.744000000000000,
239000.000000000000000,-0.000119000000000,-0.000101000000000,-0.000083400000000,-0.000000027700000,0.000000005200000,0.000081100000000,0.000144000000000,-0.000018300000000,-0.000184000000000,0.241000000000000,0.000702000000000,-0.244000000000000,0.000141000000000,0.000766000000000,0.597000000000000,0.744000000000000,
239000.000000000000000,-0.000119000000000,-0.000101000000000,-0.000083400000000,-0.000000027900000,0.000000008870000,0.000081100000000,0.000144000000000,-0.000018300000000,-0.000184000000000,0.241000000000000,0.000702000000000,-0.244000000000000,0.000143000000000,0.000767000000000,0.597000000000000,0.744000000000000,
240000.000000000000000,-0.000119000000000,-0.000101000000000,-0.000083400000000,-0.000000027100000,-0.000000004690000,0.000081100000000,0.000144000000000,-0.000018200000000,-0.000184000000000,0.241000000000000,0.000702000000000,-0.244000000000000,0.000135000000000,0.000763000000000,0.597000000000000,0.745000000000000,
240000.000000000000000,-0.000119000000000,-0.000101000000000,-0.000083400000000,-0.000000026800000,-0.000000009950000,0.000081100000000,0.000144000000000,-0.000018200000000,-0.000184000000000,0.242000000000000,0.000702000000000,-0.245000000000000,0.000132000000000,0.000761000000000,0.597000000000000,0.745000000000000,
240000.000000000000000,-0.000119000000000,-0.000101000000000,-0.000083500000000,-0.000000027600000,0.000000002850000,0.000081100000000,0.000144000000000,-0.000018300000000,-0.000184000000000,0.242000000000000,0.000703000000000,-0.245000000000000,0.000140000000000,0.000765000000000,0.598000000000000,0.745000000000000,
240000.000000000000000,-0.000119000000000,-0.000101000000000,-0.000083500000000,-0.000000027900000,0.000000008090000,0.000081100000000,0.000144000000000,-0.000018400000000,-0.000185000000000,0.242000000000000,0.000703000000000,-0.245000000000000,0.000143000000000,0.000766000000000,0.598000000000000,0.745000000000000,
240000.000000000000000,-0.000119000000000,-0.000101000000000,-0.000083500000000,-0.000000027500000,0.000000001730000,0.000081100000000,0.000144000000000,-0.000018400000000,-0.000185000000000,0.242000000000000,0.000703000000000,-0.245000000000000,0.000140000000000,0.000765000000000,0.598000000000000,0.746000000000000,
240000.000000000000000,-0.000119000000000,-0.000101000000000,-0.000083500000000,-0.000000026700000,-0.000000011200000,0.000081200000000,0.000144000000000,-0.000018300000000,-0.000185000000000,0.242000000000000,0.000703000000000,-0.246000000000000,0.000133000000000,0.000762000000000,0.598000000000000,0.746000000000000,
240000.000000000000000,-0.000119000000000,-0.000101000000000,-0.000083500000000,-0.000000026900000,-0.000000008710000,0.000081200000000,0.000144000000000,-0.000018400000000,-0.000185000000000,0.243000000000000,0.000703000000000,-0.246000000000000,0.000135000000000,0.000763000000000,0.598000000000000,0.746000000000000,
240000.000000000000000,-0.000120000000000,-0.000101000000000,-0.000083600000000,-0.000000027600000,0.000000005160000,0.000081200000000,0.000144000000000,-0.000018400000000,-0.000185000000000,0.243000000000000,0.000704000000000,-0.246000000000000,0.000143000000000,0.000768000000000,0.599000000000000,0.747000000000000,
240000.000000000000000,-0.000120000000000,-0.000101000000000,-0.000083600000000,-0.000000027400000,0.000000001060000,0.000081200000000,0.000144000000000,-0.000018400000000,-0.000185000000000,0.243000000000000,0.000704000000000,-0.246000000000000,0.000141000000000,0.000766000000000,0.599000000000000,0.747000000000000,
240000.000000000000000,-0.000120000000000,-0.000101000000000,-0.000083600000000,-0.000000026800000,-0.000000009510000,0.000081200000000,0.000144000000000,-0.000018400000000,-0.000185000000000,0.243000000000000,0.000704000000000,-0.246000000000000,0.000136000000000,0.000764000000000,0.599000000000000,0.747000000000000,
241000.000000000000000,-0.000120000000000,-0.000101000000000,-0.000083600000000,-0.000000026500000,-0.000000014000000,0.000081200000000,0.000144000000000,-0.000018400000000,-0.000185000000000,0.243000000000000,0.000704000000000,-0.247000000000000,0.000133000000000,0.000763000000000,0.599000000000000,0.747000000000000,
241000.000000000000000,-0.000120000000000,-0.000102000000000,-0.000083600000000,-0.000000027100000,-0.000000004550000,0.000081200000000,0.000144000000000,-0.000018500000000,-0.000185000000000,0.244000000000000,0.000705000000000,-0.247000000000000,0.000138000000000,0.000765000000000,0.599000000000000,0.748000000000000,
241000.000000000000000,-0.000120000000000,-0.000102000000000,-0.000083700000000,-0.000000027800000,0.000000006990000,0.000081200000000,0.000144000000000,-0.000018500000000,-0.000185000000000,0.244000000000000,0.000705000000000,-0.247000000000000,0.000145000000000,0.000768000000000,0.600000000000000,0.748000000000000,
241000.000000000000000,-0.000120000000000,-0.000102000000000,-0.000083700000000,-0.000000027100000,-0.000000003770000,0.000081300000000,0.000144000000000,-0.000018500000000,-0.000185000000000,0.244000000000000,0.000705000000000,-0.247000000000000,0.000138000000000,0.000764000000000,0.600000000000000,0.748000000000000,
241000.000000000000000,-0.000120000000000,-0.000102000000000,-0.000083700000000,-0.000000026700000,-0.000000012000000,0.000081300000000,0.000144000000000,-0.000018500000000,-0.000185000000000,0.244000000000000,0.000705000000000,-0.247000000000000,0.000133000000000,0.000762000000000,0.600000000000000,0.749000000000000,
241000.000000000000000,-0.000120000000000,-0.000102000000000,-0.000083700000000,-0.000000027100000,-0.000000005430000,0.000081300000000,0.000144000000000,-0.000018500000000,-0.000185000000000,0.244000000000000,0.000705000000000,-0.248000000000000,0.000137000000000,0.000763000000000,0.600000000000000,0.749000000000000,
241000.000000000000000,-0.000120000000000,-0.000102000000000,-0.000083800000000,-0.000000027700000,0.000000005300000,0.000081300000000,0.000144000000000,-0.000018600000000,-0.000185000000000,0.245000000000000,0.000706000000000,-0.248000000000000,0.000143000000000,0.000765000000000,0.600000000000000,0.749000000000000,
241000.000000000000000,-0.000120000000000,-0.000102000000000,-0.000083800000000,-0.000000028000000,0.000000008810000,0.000081300000000,0.000144000000000,-0.000018600000000,-0.000185000000000,0.245000000000000,0.000706000000000,-0.248000000000000,0.000145000000000,0.000767000000000,0.601000000000000,0.750000000000000,
241000.000000000000000,-0.000120000000000,-0.000102000000000,-0.000083800000000,-0.000000027000000,-0.000000006140000,0.000081300000000,0.000144000000000,-0.000018600000000,-0.000185000000000,0.245000000000000,0.000706000000000,-0.248000000000000,0.000136000000000,0.000762000000000,0.601000000000000,0.750000000000000,
241000.000000000000000,-0.000120000000000,-0.000102000000000,-0.000083800000000,-0.000000026800000,-0.000000010100000,0.000081300000000,0.000144000000000,-0.000018600000000,-0.000185000000000,0.245000000000000,0.000706000000000,-0.248000000000000,0.000135000000000,0.000761000000000,0.601000000000000,0.750000000000000,
242000.000000000000000,-0.000120000000000,-0.000102000000000,-0.000083800000000,-0.000000027500000,0.000000001870000,0.000081300000000,0.000144000000000,-0.000018700000000,-0.000185000000000,0.245000000000000,0.000707000000000,-0.249000000000000,0.000142000000000,0.000765000000000,0.601000000000000,0.750000000000000,
242000.000000000000000,-0.000120000000000,-0.000102000000000,-0.000083900000000,-0.000000027800000,0.000000006120000,0.000081400000000,0.000144000000000,-0.000018700000000,-0.000185000000000,0.246000000000000,0.000707000000000,-0.249000000000000,0.000145000000000,0.000767000000000,0.601000000000000,0.751000000000000,
242000.000000000000000,-0.000120000000000,-0.000102000000000,-0.000083900000000,-0.000000027400000,-0.000000000227000,0.000081400000000,0.000144000000000,-0.000018700000000,-0.000185000000000,0.246000000000000,0.000707000000000,-0.249000000000000,0.000142000000000,0.000766000000000,0.601000000000000,0.751000000000000,
242000.000000000000000,-0.000120000000000,-0.000102000000000,-0.000083800000000,-0.000000026500000,-0.000000014200000,0.000081400000000,0.000144000000000,-0.000018700000000,-0.000185000000000,0.246000000000000,0.000707000000000,-0.249000000000000,0.000134000000000,0.000762000000000,0.602000000000000,0.751000000000000,
242000.000000000000000,-0.000120000000000,-0.000102000000000,-0.000083900000000,-0.000000026700000,-0.000000011200000,0.000081400000000,0.000144000000000,-0.000018700000000,-0.000186000000000,0.246000000000000,0.000707000000000,-0.249000000000000,0.000136000000000,0.000763000000000,0.602000000000000,0.751000000000000,
242000.000000000000000,-0.000120000000000,-0.000102000000000,-0.000084000000000,-0.000000027600000,0.000000002530000,0.000081400000000,0.000144000000000,-0.000018800000000,-0.000186000000000,0.246000000000000,0.000708000000000,-0.250000000000000,0.000144000000000,0.000768000000000,0.602000000000000,0.752000000000000,
242000.000000000000000,-0.000120000000000,-0.000102000000000,-0.000084000000000,-0.000000027500000,-0.000000000198000,0.000081400000000,0.000145000000000,-0.000018800000000,-0.000186000000000,0.246000000000000,0.000708000000000,-0.250000000000000,0.000142000000000,0.000766000000000,0.602000000000000,0.752000000000000,
242000.000000000000000,-0.000120000000000,-0.000102000000000,-0.000083900000000,-0.000000027000000,-0.000000009740000,0.000081400000000,0.000145000000000,-0.000018700000000,-0.000186000000000,0.247000000000000,0.000708000000000,-0.250000000000000,0.000137000000000,0.000764000000000,0.602000000000000,0.752000000000000,
242000.000000000000000,-0.000120000000000,-0.000102000000000,-0.000083900000000,-0.000000026800000,-0.000000014900000,0.000081400000000,0.000145000000000,-0.000018700000000,-0.000186000000000,0.247000000000000,0.000708000000000,-0.250000000000000,0.000133000000000,0.000762000000000,0.602000000000000,0.752000000000000,
242000.000000000000000,-0.000121000000000,-0.000102000000000,-0.000083900000000,-0.000000027600000,-0.000000003900000,0.000081400000000,0.000145000000000,-0.000018800000000,-0.000186000000000,0.247000000000000,0.000708000000000,-0.250000000000000,0.000139000000000,0.000764000000000,0.602000000000000,0.753000000000000,
243000.000000000000000,-0.000121000000000,-0.000102000000000,-0.000084000000000,-0.000000028500000,0.000000008580000,0.000081400000000,0.000145000000000,-0.000018800000000,-0.000186000000000,0.247000000000000,0.000709000000000,-0.250000000000000,0.000145000000000,0.000768000000000,0.603000000000000,0.753000000000000,
243000.000000000000000,-0.000121000000000,-0.000102000000000,-0.000083900000000,-0.000000028100000,-0.000000000192000,0.000081400000000,0.000145000000000,-0.000018800000000,-0.000186000000000,0.247000000000000,0.000708000000000,-0.250000000000000,0.000139000000000,0.000764000000000,0.603000000000000,0.753000000000000,
243000.000000000000000,-0.000121000000000,-0.000102000000000,-0.000083900000000,-0.000000027800000,-0.000000006540000,0.000081500000000,0.000145000000000,-0.000018800000000,-0.000186000000000,0.247000000000000,0.000708000000000,-0.250000000000000,0.000136000000000,0.000763000000000,0.603000000000000,0.753000000000000,
243000.000000000000000,-0.000121000000000,-0.000102000000000,-0.000084000000000,-0.000000028200000,-0.000000000839000,0.000081500000000,0.000145000000000,-0.000018800000000,-0.000186000000000,0.247000000000000,0.000709000000000,-0.251000000000000,0.000139000000000,0.000764000000000,0.603000000000000,0.753000000000000,
243000.000000000000000,-0.000121000000000,-0.000102000000000,-0.000084000000000,-0.000000028800000,0.000000009680000,0.000081500000000,0.000145000000000,-0.000018900000000,-0.000186000000000,0.248000000000000,0.000709000000000,-0.251000000000000,0.000145000000000,0.000766000000000,0.603000000000000,0.754000000000000,
243000.000000000000000,-0.000121000000000,-0.000102000000000,-0.000084000000000,-0.000000029100000,0.000000013600000,0.000081500000000,0.000145000000000,-0.000018900000000,-0.000186000000000,0.248000000000000,0.000710000000000,-0.251000000000000,0.000147000000000,0.000768000000000,0.603000000000000,0.754000000000000,
243000.000000000000000,-0.000121000000000,-0.000102000000000,-0.000084000000000,-0.000000028200000,-0.000000000987000,0.000081500000000,0.000145000000000,-0.000018800000000,-0.000186000000000,0.248000000000000,0.000709000000000,-0.251000000000000,0.000139000000000,0.000764000000000,0.604000000000000,0.754000000000000,
243000.000000000000000,-0.000121000000000,-0.000102000000000,-0.000084000000000,-0.000000027800000,-0.000000005740000,0.000081500000000,0.000145000000000,-0.000018900000000,-0.000186000000000,0.248000000000000,0.000709000000000,-0.251000000000000,0.000137000000000,0.000764000000000,0.604000000000000,0.754000000000000,
243000.000000000000000,-0.000121000000000,-0.000102000000000,-0.000084100000000,-0.000000028300000,0.000000002270000,0.000081500000000,0.000145000000000,-0.000018900000000,-0.000186000000000,0.248000000000000,0.000710000000000,-0.252000000000000,0.000142000000000,0.000766000000000,0.604000000000000,0.755000000000000,
243000.000000000000000,-0.000121000000000,-0.000102000000000,-0.000084100000000,-0.000000028500000,0.000000004970000,0.000081500000000,0.000145000000000,-0.000019000000000,-0.000186000000000,0.249000000000000,0.000710000000000,-0.252000000000000,0.000144000000000,0.000767000000000,0.604000000000000,0.755000000000000,
244000.000000000000000,-0.000121000000000,-0.000102000000000,-0.000084100000000,-0.000000028000000,-0.000000001870000,0.000081500000000,0.000145000000000,-0.000019000000000,-0.000186000000000,0.249000000000000,0.000710000000000,-0.252000000000000,0.000141000000000,0.000767000000000,0.604000000000000,0.755000000000000,
244000.000000000000000,-0.000121000000000,-0.000102000000000,-0.000084100000000,-0.000000027200000,-0.000000015200000,0.000081600000000,0.000145000000000,-0.000018900000000,-0.000186000000000,0.249000000000000,0.000710000000000,-0.252000000000000,0.000134000000000,0.000763000000000,0.605000000000000,0.756000000000000,
244000.000000000000000,-0.000121000000000,-0.000102000000000,-0.000084100000000,-0.000000027400000,-0.000000011000000,0.000081600000000,0.000145000000000,-0.000019000000000,-0.000186000000000,0.249000000000000,0.000711000000000,-0.252000000000000,0.000137000000000,0.000764000000000,0.605000000000000,0.756000000000000,
244000.000000000000000,-0.000121000000000,-0.000102000000000,-0.000084200000000,-0.000000028200000,0.000000001160000,0.000081600000000,0.000145000000000,-0.000019000000000,-0.000186000000000,0.249000000000000,0.000711000000000,-0.253000000000000,0.000143000000000,0.000767000000000,0.605000000000000,0.756000000000000,
244000.000000000000000,-0.000121000000000,-0.000103000000000,-0.000084200000000,-0.000000028200000,0.000000000824000,0.000081600000000,0.000145000000000,-0.000019000000000,-0.000186000000000,0.250000000000000,0.000711000000000,-0.253000000000000,0.000142000000000,0.000766000000000,0.605000000000000,0.756000000000000,
244000.000000000000000,-0.000121000000000,-0.000103000000000,-0.000084200000000,-0.000000027800000,-0.000000005790000,0.000081600000000,0.000145000000000,-0.000019000000000,-0.000186000000000,0.250000000000000,0.000711000000000,-0.253000000000000,0.000139000000000,0.000764000000000,0.605000000000000,0.757000000000000,
244000.000000000000000,-0.000121000000000,-0.000103000000000,-0.000084200000000,-0.000000027700000,-0.000000008690000,0.000081600000000,0.000145000000000,-0.000019000000000,-0.000186000000000,0.250000000000000,0.000711000000000,-0.253000000000000,0.000136000000000,0.000763000000000,0.605000000000000,0.757000000000000,
244000.000000000000000,-0.000121000000000,-0.000103000000000,-0.000084300000000,-0.000000028500000,0.000000003490000,0.000081600000000,0.000145000000000,-0.000019100000000,-0.000187000000000,0.250000000000000,0.000712000000000,-0.253000000000000,0.000143000000000,0.000765000000000,0.606000000000000,0.757000000000000,
244000.000000000000000,-0.000121000000000,-0.000103000000000,-0.000084300000000,-0.000000029000000,0.000000012800000,0.000081600000000,0.000145000000000,-0.000019100000000,-0.000187000000000,0.250000000000000,0.000712000000000,-0.254000000000000,0.000148000000000,0.000767000000000,0.606000000000000,0.758000000000000,
244000.000000000000000,-0.000121000000000,-0.000103000000000,-0.000084300000000,-0.000000028500000,0.000000004230000,0.000081700000000,0.000145000000000,-0.000019100000000,-0.000187000000000,0.251000000000000,0.000712000000000,-0.254000000000000,0.000143000000000,0.000765000000000,0.606000000000000,0.758000000000000,
245000.000000000000000,-0.000121000000000,-0.000103000000000,-0.000084300000000,-0.000000028000000,-0.000000003570000,0.000081700000000,0.000145000000000,-0.000019100000000,-0.000187000000000,0.251000000000000,0.000712000000000,-0.254000000000000,0.000139000000000,0.000763000000000,0.606000000000000,0.758000000000000,
245000.000000000000000,-0.000122000000000,-0.000103000000000,-0.000084300000000,-0.000000028000000,-0.000000002650000,0.000081700000000,0.000145000000000,-0.000019100000000,-0.000187000000000,0.251000000000000,0.000713000000000,-0.254000000000000,0.000140000000000,0.000764000000000,0.606000000000000,0.759000000000000,
245000.000000000000000,-0.000122000000000,-0.000103000000000,-0.000084400000000,-0.000000028500000,0.000000005700000,0.000081700000000,0.000145000000000,-0.000019200000000,-0.000187000000000,0.251000000000000,0.000713000000000,-0.254000000000000,0.000145000000000,0.000766000000000,0.607000000000000,0.759000000000000,
245000.000000000000000,-0.000122000000000,-0.000103000000000,-0.000084400000000,-0.000000028500000,0.000000005510000,0.000081700000000,0.000145000000000,-0.000019200000000,-0.000187000000000,0.251000000000000,0.000713000000000,-0.255000000000000,0.000146000000000,0.000767000000000,0.607000000000000,0.759000000000000,
245000.000000000000000,-0.000122000000000,-0.000103000000000,-0.000084400000000,-0.000000027500000,-0.000000009680000,0.000081700000000,0.000145000000000,-0.000019200000000,-0.000187000000000,0.252000000000000,0.000713000000000,-0.255000000000000,0.000138000000000,0.000764000000000,0.607000000000000,0.759000000000000,
245000.000000000000000,-0.000122000000000,-0.000103000000000,-0.000084400000000,-0.000000027300000,-0.000000013100000,0.000081700000000,0.000145000000000,-0.000019200000000,-0.000187000000000,0.252000000000000,0.000713000000000,-0.255000000000000,0.000137000000000,0.000764000000000,0.607000000000000,0.760000000000000,
245000.000000000000000,-0.000122000000000,-0.000103000000000,-0.000084400000000,-0.000000027700000,-0.000000005530000,0.000081700000000,0.000145000000000,-0.000019300000000,-0.000187000000000,0.252000000000000,0.000714000000000,-0.255000000000000,0.000141000000000,0.000766000000000,0.607000000000000,0.760000000000000,
245000.000000000000000,-0.000122000000000,-0.000103000000000,-0.000084500000000,-0.000000028100000,0.000000000740000,0.000081800000000,0.000145000000000,-0.000019300000000,-0.000187000000000,0.252000000000000,0.000714000000000,-0.255000000000000,0.000145000000000,0.000767000000000,0.608000000000000,0.760000000000000,
245000.000000000000000,-0.000122000000000,-0.000103000000000,-0.000084500000000,-0.000000027900000,-0.000000002530000,0.000081800000000,0.000145000000000,-0.000019300000000,-0.000187000000000,0.252000000000000,0.000714000000000,-0.256000000000000,0.000143000000000,0.000766000000000,0.608000000000000,0.761000000000000,
245000.000000000000000,-0.000122000000000,-0.000103000000000,-0.000084500000000,-0.000000027300000,-0.000000013200000,0.000081800000000,0.000145000000000,-0.000019300000000,-0.000187000000000,0.253000000000000,0.000714000000000,-0.256000000000000,0.000137000000000,0.000763000000000,0.608000000000000,0.761000000000000,
246000.000000000000000,-0.000122000000000,-0.000103000000000,-0.000084500000000,-0.000000027700000,-0.000000006510000,0.000081800000000,0.000145000000000,-0.000019300000000,-0.000187000000000,0.253000000000000,0.000715000000000,-0.256000000000000,0.000140000000000,0.000764000000000,0.608000000000000,0.761000000000000,
246000.000000000000000,-0.000122000000000,-0.000103000000000,-0.000084600000000,-0.000000028500000,0.000000005150000,0.000081800000000,0.000145000000000,-0.000019400000000,-0.000187000000000,0.253000000000000,0.000715000000000,-0.256000000000000,0.000146000000000,0.000766000000000,0.608000000000000,0.761000000000000,
246000.000000000000000,-0.000122000000000,-0.000103000000000,-0.000084600000000,-0.000000028500000,0.000000005820000,0.000081800000000,0.000145000000000,-0.000019400000000,-0.000187000000000,0.253000000000000,0.000715000000000,-0.256000000000000,0.000146000000000,0.000766000000000,0.608000000000000,0.762000000000000,
246000.000000000000000,-0.000122000000000,-0.000103000000000,-0.000084600000000,-0.000000028100000,-0.000000000945000,0.000081800000000,0.000145000000000,-0.000019400000000,-0.000187000000000,0.253000000000000,0.000715000000000,-0.257000000000000,0.000142000000000,0.000764000000000,0.609000000000000,0.762000000000000,
246000.000000000000000,-0.000122000000000,-0.000103000000000,-0.000084600000000,-0.000000027700000,-0.000000007220000,0.000081800000000,0.000145000000000,-0.000019400000000,-0.000187000000000,0.254000000000000,0.000715000000000,-0.257000000000000,0.000139000000000,0.000762000000000,0.609000000000000,0.762000000000000,
246000.000000000000000,-0.000122000000000,-0.000103000000000,-0.000084600000000,-0.000000028300000,0.000000001990000,0.000081900000000,0.000145000000000,-0.000019400000000,-0.000187000000000,0.254000000000000,0.000716000000000,-0.257000000000000,0.000144000000000,0.000765000000000,0.609000000000000,0.763000000000000,
246000.000000000000000,-0.000122000000000,-0.000103000000000,-0.000084700000000,-0.000000028600000,0.000000007630000,0.000081900000000,0.000145000000000,-0.000019500000000,-0.000187000000000,0.254000000000000,0.000716000000000,-0.257000000000000,0.000148000000000,0.000766000000000,0.609000000000000,0.763000000000000,
246000.000000000000000,-0.000122000000000,-0.000103000000000,-0.000084700000000,-0.000000028000000,-0.000000001700000,0.000081900000000,0.000146000000000,-0.000019500000000,-0.000188000000000,0.254000000000000,0.000716000000000,-0.257000000000000,0.000143000000000,0.000764000000000,0.609000000000000,0.763000000000000,
246000.000000000000000,-0.000122000000000,-0.000103000000000,-0.000084700000000,-0.000000027400000,-0.000000010000000,0.000081900000000,0.000146000000000,-0.000019500000000,-0.000188000000000,0.254000000000000,0.000716000000000,-0.258000000000000,0.000139000000000,0.000763000000000,0.610000000000000,0.763000000000000,
246000.000000000000000,-0.000122000000000,-0.000103000000000,-0.000084700000000,-0.000000027400000,-0.000000010600000,0.000081900000000,0.000146000000000,-0.000019500000000,-0.000188000000000,0.255000000000000,0.000716000000000,-0.258000000000000,0.000139000000000,0.000763000000000,0.610000000000000,0.764000000000000,
247000.000000000000000,-0.000122000000000,-0.000103000000000,-0.000084700000000,-0.000000028000000,-0.000000000695000,0.000081900000000,0.000146000000000,-0.000019500000000,-0.000188000000000,0.255000000000000,0.000717000000000,-0.258000000000000,0.000145000000000,0.000766000000000,0.610000000000000,0.764000000000000,
247000.000000000000000,-0.000123000000000,-0.000103000000000,-0.000084800000000,-0.000000028100000,0.000000000624000,0.000081900000000,0.000146000000000,-0.000019600000000,-0.000188000000000,0.255000000000000,0.000717000000000,-0.258000000000000,0.000147000000000,0.000767000000000,0.610000000000000,0.764000000000000,
247000.000000000000000,-0.000123000000000,-0.000103000000000,-0.000084700000000,-0.000000027300000,-0.000000010800000,0.000081900000000,0.000146000000000,-0.000019500000000,-0.000188000000000,0.255000000000000,0.000717000000000,-0.259000000000000,0.000140000000000,0.000764000000000,0.610000000000000,0.765000000000000,
247000.000000000000000,-0.000123000000000,-0.000103000000000,-0.000084700000000,-0.000000027100000,-0.000000012400000,0.000082000000000,0.000146000000000,-0.000019600000000,-0.000188000000000,0.255000000000000,0.000717000000000,-0.259000000000000,0.000140000000000,0.000764000000000,0.610000000000000,0.765000000000000,
247000.000000000000000,-0.000123000000000,-0.000104000000000,-0.000084800000000,-0.000000027600000,-0.000000004970000,0.000082000000000,0.000146000000000,-0.000019600000000,-0.000188000000000,0.256000000000000,0.000718000000000,-0.259000000000000,0.000143000000000,0.000765000000000,0.611000000000000,0.765000000000000,
247000.000000000000000,-0.000123000000000,-0.000104000000000,-0.000084900000000,-0.000000028300000,0.000000002160000,0.000082000000000,0.000146000000000,-0.000019700000000,-0.000188000000000,0.256000000000000,0.000718000000000,-0.259000000000000,0.000147000000000,0.000766000000000,0.611000000000000,0.765000000000000,
247000.000000000000000,-0.000123000000000,-0.000104000000000,-0.000084900000000,-0.000000028300000,-0.000000000672000,0.000082000000000,0.000146000000000,-0.000019700000000,-0.000188000000000,0.256000000000000,0.000718000000000,-0.259000000000000,0.000145000000000,0.000765000000000,0.611000000000000,0.766000000000000,
247000.000000000000000,-0.000123000000000,-0.000104000000000,-0.000084800000000,-0.000000027700000,-0.000000009260000,0.000082000000000,0.000146000000000,-0.000019600000000,-0.000188000000000,0.256000000000000,0.000718000000000,-0.260000000000000,0.000139000000000,0.000762000000000,0.611000000000000,0.766000000000000,
247000.000000000000000,-0.000123000000000,-0.000104000000000,-0.000084800000000,-0.000000027800000,-0.000000002570000,0.000082000000000,0.000146000000000,-0.000019600000000,-0.000188000000000,0.257000000000000,0.000719000000000,-0.260000000000000,0.000143000000000,0.000764000000000,0.611000000000000,0.766000000000000,
247000.000000000000000,-0.000123000000000,-0.000104000000000,-0.000084800000000,-0.000000027900000,0.000000005730000,0.000082000000000,0.000146000000000,-0.000019600000000,-0.000188000000000,0.257000000000000,0.000719000000000,-0.260000000000000,0.000148000000000,0.000765000000000,0.612000000000000,0.767000000000000,
248000.000000000000000,-0.000123000000000,-0.000104000000000,-0.000084900000000,-0.000000027400000,0.000000001960000,0.000082000000000,0.000146000000000,-0.000019700000000,-0.000188000000000,0.257000000000000,0.000719000000000,-0.260000000000000,0.000147000000000,0.000763000000000,0.612000000000000,0.767000000000000,
248000.000000000000000,-0.000123000000000,-0.000104000000000,-0.000084900000000,-0.000000026700000,-0.000000011000000,0.000082000000000,0.000146000000000,-0.000019800000000,-0.000188000000000,0.257000000000000,0.000719000000000,-0.260000000000000,0.000142000000000,0.000760000000000,0.612000000000000,0.767000000000000,
248000.000000000000000,-0.000123000000000,-0.000104000000000,-0.000085000000000,-0.000000026400000,-0.000000021100000,0.000082100000000,0.000146000000000,-0.000019800000000,-0.000188000000000,0.257000000000000,0.000719000000000,-0.261000000000000,0.000137000000000,0.000758000000000,0.612000000000000,0.768000000000000,
248000.000000000000000,-0.000123000000000,-0.000104000000000,-0.000085000000000,-0.000000027400000,-0.000000012700000,0.000082100000000,0.000146000000000,-0.000019800000000,-0.000188000000000,0.258000000000000,0.000719000000000,-0.261000000000000,0.000142000000000,0.000761000000000,0.612000000000000,0.768000000000000,
248000.000000000000000,-0.000123000000000,-0.000104000000000,-0.000085000000000,-0.000000027900000,-0.000000006480000,0.000082100000000,0.000146000000000,-0.000019800000000,-0.000188000000000,0.258000000000000,0.000720000000000,-0.261000000000000,0.000146000000000,0.000763000000000,0.613000000000000,0.768000000000000,
248000.000000000000000,-0.000123000000000,-0.000104000000000,-0.000084900000000,-0.000000027400000,-0.000000011500000,0.000082100000000,0.000146000000000,-0.000019700000000,-0.000188000000000,0.258000000000000,0.000720000000000,-0.262000000000000,0.000144000000000,0.000762000000000,0.613000000000000,0.769000000000000,
248000.000000000000000,-0.000123000000000,-0.000104000000000,-0.000084900000000,-0.000000026700000,-0.000000017900000,0.000082100000000,0.000146000000000,-0.000019600000000,-0.000188000000000,0.259000000000000,0.000720000000000,-0.262000000000000,0.000141000000000,0.000761000000000,0.613000000000000,0.769000000000000,
248000.000000000000000,-0.000123000000000,-0.000104000000000,-0.000084800000000,-0.000000026500000,-0.000000016900000,0.000082200000000,0.000146000000000,-0.000019600000000,-0.000188000000000,0.259000000000000,0.000720000000000,-0.262000000000000,0.000142000000000,0.000760000000000,0.613000000000000,0.769000000000000,
248000.000000000000000,-0.000123000000000,-0.000104000000000,-0.000084900000000,-0.000000026900000,-0.000000004640000,0.000082200000000,0.000146000000000,-0.000019600000000,-0.000188000000000,0.259000000000000,0.000720000000000,-0.262000000000000,0.000149000000000,0.000763000000000,0.613000000000000,0.770000000000000,
248000.000000000000000,-0.000123000000000,-0.000104000000000,-0.000084900000000,-0.000000026800000,-0.000000002830000,0.000082200000000,0.000146000000000,-0.000019600000000,-0.000188000000000,0.259000000000000,0.000720000000000,-0.263000000000000,0.000151000000000,0.000762000000000,0.614000000000000,0.770000000000000,
249000.000000000000000,-0.000123000000000,-0.000104000000000,-0.000084800000000,-0.000000026000000,-0.000000011500000,0.000082200000000,0.000146000000000,-0.000019600000000,-0.000188000000000,0.260000000000000,0.000720000000000,-0.263000000000000,0.000146000000000,0.000759000000000,0.614000000000000,0.770000000000000,
249000.000000000000000,-0.000123000000000,-0.000104000000000,-0.000084800000000,-0.000000025800000,-0.000000013800000,0.000082200000000,0.000146000000000,-0.000019600000000,-0.000188000000000,0.260000000000000,0.000720000000000,-0.263000000000000,0.000145000000000,0.000758000000000,0.614000000000000,0.771000000000000,
249000.000000000000000,-0.000123000000000,-0.000104000000000,-0.000084900000000,-0.000000026000000,-0.000000008630000,0.000082200000000,0.000146000000000,-0.000019600000000,-0.000189000000000,0.260000000000000,0.000720000000000,-0.263000000000000,0.000147000000000,0.000758000000000,0.614000000000000,0.771000000000000,
249000.000000000000000,-0.000123000000000,-0.000104000000000,-0.000084900000000,-0.000000026400000,-0.000000001880000,0.000082200000000,0.000146000000000,-0.000019700000000,-0.000189000000000,0.260000000000000,0.000721000000000,-0.264000000000000,0.000151000000000,0.000760000000000,0.614000000000000,0.771000000000000,
249000.000000000000000,-0.000123000000000,-0.000104000000000,-0.000084900000000,-0.000000025800000,-0.000000008460000,0.000082200000000,0.000146000000000,-0.000019700000000,-0.000189000000000,0.261000000000000,0.000720000000000,-0.264000000000000,0.000148000000000,0.000758000000000,0.615000000000000,0.772000000000000,
249000.000000000000000,-0.000123000000000,-0.000104000000000,-0.000084900000000,-0.000000025100000,-0.000000020000000,0.000082300000000,0.000146000000000,-0.000019700000000,-0.000189000000000,0.261000000000000,0.000720000000000,-0.264000000000000,0.000142000000000,0.000755000000000,0.615000000000000,0.772000000000000,
249000.000000000000000,-0.000123000000000,-0.000104000000000,-0.000084900000000,-0.000000025100000,-0.000000018400000,0.000082300000000,0.000146000000000,-0.000019700000000,-0.000189000000000,0.261000000000000,0.000721000000000,-0.264000000000000,0.000144000000000,0.000756000000000,0.615000000000000,0.772000000000000,
249000.000000000000000,-0.000124000000000,-0.000104000000000,-0.000085000000000,-0.000000025400000,-0.000000013200000,0.000082300000000,0.000146000000000,-0.000019700000000,-0.000189000000000,0.261000000000000,0.000721000000000,-0.264000000000000,0.000147000000000,0.000757000000000,0.615000000000000,0.772000000000000,
249000.000000000000000,-0.000124000000000,-0.000104000000000,-0.000085000000000,-0.000000025400000,-0.000000012700000,0.000082300000000,0.000146000000000,-0.000019800000000,-0.000189000000000,0.261000000000000,0.000721000000000,-0.265000000000000,0.000148000000000,0.000758000000000,0.615000000000000,0.773000000000000,
249000.000000000000000,-0.000124000000000,-0.000104000000000,-0.000085000000000,-0.000000024800000,-0.000000021400000,0.000082300000000,0.000146000000000,-0.000019800000000,-0.000189000000000,0.262000000000000,0.000721000000000,-0.265000000000000,0.000144000000000,0.000757000000000,0.616000000000000,0.773000000000000,
250000.000000000000000,-0.000124000000000,-0.000104000000000,-0.000085000000000,-0.000000024400000,-0.000000026700000,0.000082300000000,0.000146000000000,-0.000019800000000,-0.000189000000000,0.262000000000000,0.000721000000000,-0.265000000000000,0.000142000000000,0.000755000000000,0.616000000000000,0.773000000000000,
250000.000000000000000,-0.000124000000000,-0.000104000000000,-0.000085100000000,-0.000000025000000,-0.000000017300000,0.000082300000000,0.000146000000000,-0.000019800000000,-0.000189000000000,0.262000000000000,0.000722000000000,-0.265000000000000,0.000147000000000,0.000758000000000,0.616000000000000,0.774000000000000,
250000.000000000000000,-0.000124000000000,-0.000104000000000,-0.000085100000000,-0.000000025400000,-0.000000011700000,0.000082400000000,0.000147000000000,-0.000019900000000,-0.000189000000000,0.262000000000000,0.000722000000000,-0.266000000000000,0.000150000000000,0.000759000000000,0.616000000000000,0.774000000000000,
250000.000000000000000,-0.000124000000000,-0.000104000000000,-0.000085100000000,-0.000000025200000,-0.000000014900000,0.000082400000000,0.000147000000000,-0.000019900000000,-0.000189000000000,0.263000000000000,0.000722000000000,-0.266000000000000,0.000148000000000,0.000758000000000,0.616000000000000,0.774000000000000,
250000.000000000000000,-0.000124000000000,-0.000104000000000,-0.000085100000000,-0.000000024800000,-0.000000021500000,0.000082400000000,0.000147000000000,-0.000019900000000,-0.000189000000000,0.263000000000000,0.000722000000000,-0.266000000000000,0.000144000000000,0.000756000000000,0.616000000000000,0.774000000000000,
250000.000000000000000,-0.000124000000000,-0.000104000000000,-0.000085100000000,-0.000000024900000,-0.000000020500000,0.000082400000000,0.000147000000000,-0.000019900000000,-0.000189000000000,0.263000000000000,0.000722000000000,-0.266000000000000,0.000145000000000,0.000755000000000,0.617000000000000,0.775000000000000,
250000.000000000000000,-0.000124000000000,-0.000104000000000,-0.000085200000000,-0.000000025600000,-0.000000009630000,0.000082400000000,0.000147000000000,-0.000019900000000,-0.000189000000000,0.263000000000000,0.000723000000000,-0.266000000000000,0.000150000000000,0.000757000000000,0.617000000000000,0.775000000000000,
250000.000000000000000,-0.000124000000000,-0.000104000000000,-0.000085200000000,-0.000000025600000,-0.000000010000000,0.000082400000000,0.000147000000000,-0.000020000000000,-0.000189000000000,0.263000000000000,0.000723000000000,-0.267000000000000,0.000150000000000,0.000757000000000,0.617000000000000,0.775000000000000,
250000.000000000000000,-0.000124000000000,-0.000104000000000,-0.000085200000000,-0.000000025100000,-0.000000018100000,0.000082400000000,0.000147000000000,-0.000019900000000,-0.000189000000000,0.264000000000000,0.000723000000000,-0.267000000000000,0.000145000000000,0.000754000000000,0.617000000000000,0.776000000000000,
250000.000000000000000,-0.000124000000000,-0.000104000000000,-0.000085200000000,-0.000000024800000,-0.000000021900000,0.000082400000000,0.000147000000000,-0.000020000000000,-0.000189000000000,0.264000000000000,0.000723000000000,-0.267000000000000,0.000143000000000,0.000754000000000,0.617000000000000,0.776000000000000,
251000.000000000000000,-0.000124000000000,-0.000105000000000,-0.000085200000000,-0.000000025100000,-0.000000017200000,0.000082400000000,0.000147000000000,-0.000020000000000,-0.000189000000000,0.264000000000000,0.000723000000000,-0.267000000000000,0.000146000000000,0.000755000000000,0.618000000000000,0.776000000000000,
251000.000000000000000,-0.000124000000000,-0.000105000000000,-0.000085300000000,-0.000000025600000,-0.000000009530000,0.000082500000000,0.000147000000000,-0.000020000000000,-0.000190000000000,0.264000000000000,0.000724000000000,-0.267000000000000,0.000151000000000,0.000757000000000,0.618000000000000,0.777000000000000,
251000.000000000000000,-0.000124000000000,-0.000105000000000,-0.000085300000000,-0.000000025100000,-0.000000015800000,0.000082500000000,0.000147000000000,-0.000020100000000,-0.000190000000000,0.264000000000000,0.000724000000000,-0.268000000000000,0.000148000000000,0.000756000000000,0.618000000000000,0.777000000000000,
251000.000000000000000,-0.000124000000000,-0.000105000000000,-0.000085300000000,-0.000000024600000,-0.000000024300000,0.000082500000000,0.000147000000000,-0.000020000000000,-0.000190000000000,0.265000000000000,0.000724000000000,-0.268000000000000,0.000144000000000,0.000754000000000,0.618000000000000,0.777000000000000,
251000.000000000000000,-0.000124000000000,-0.000105000000000,-0.000085300000000,-0.000000024700000,-0.000000022200000,0.000082500000000,0.000147000000000,-0.000020100000000,-0.000190000000000,0.265000000000000,0.000724000000000,-0.268000000000000,0.000146000000000,0.000755000000000,0.618000000000000,0.777000000000000,
251000.000000000000000,-0.000124000000000,-0.000105000000000,-0.000085400000000,-0.000000025100000,-0.000000015700000,0.000082500000000,0.000147000000000,-0.000020100000000,-0.000190000000000,0.265000000000000,0.000725000000000,-0.268000000000000,0.000150000000000,0.000757000000000,0.618000000000000,0.778000000000000,
251000.000000000000000,-0.000125000000000,-0.000105000000000,-0.000085400000000,-0.000000025300000,-0.000000013100000,0.000082500000000,0.000147000000000,-0.000020200000000,-0.000190000000000,0.265000000000000,0.000725000000000,-0.269000000000000,0.000151000000000,0.000758000000000,0.619000000000000,0.778000000000000,
251000.000000000000000,-0.000125000000000,-0.000105000000000,-0.000085400000000,-0.000000024700000,-0.000000022100000,0.000082500000000,0.000147000000000,-0.000020100000000,-0.000190000000000,0.265000000000000,0.000725000000000,-0.269000000000000,0.000146000000000,0.000755000000000,0.619000000000000,0.778000000000000,
251000.000000000000000,-0.000125000000000,-0.000105000000000,-0.000085400000000,-0.000000024400000,-0.000000027200000,0.000082500000000,0.000147000000000,-0.000020200000000,-0.000190000000000,0.266000000000000,0.000725000000000,-0.269000000000000,0.000143000000000,0.000754000000000,0.619000000000000,0.779000000000000,
251000.000000000000000,-0.000125000000000,-0.000105000000000,-0.000085500000000,-0.000000024900000,-0.000000019500000,0.000082600000000,0.000147000000000,-0.000020200000000,-0.000190000000000,0.266000000000000,0.000726000000000,-0.269000000000000,0.000147000000000,0.000755000000000,0.619000000000000,0.779000000000000,
252000.000000000000000,-0.000125000000000,-0.000105000000000,-0.000085500000000,-0.000000025300000,-0.000000014000000,0.000082600000000,0.000147000000000,-0.000020200000000,-0.000190000000000,0.266000000000000,0.000726000000000,-0.269000000000000,0.000150000000000,0.000756000000000,0.619000000000000,0.779000000000000,
252000.000000000000000,-0.000125000000000,-0.000105000000000,-0.000085500000000,-0.000000025200000,-0.000000015900000,0.000082600000000,0.000147000000000,-0.000020200000000,-0.000190000000000,0.266000000000000,0.000726000000000,-0.270000000000000,0.000148000000000,0.000755000000000,0.619000000000000,0.779000000000000,
252000.000000000000000,-0.000125000000000,-0.000105000000000,-0.000085500000000,-0.000000024800000,-0.000000023200000,0.000082600000000,0.000147000000000,-0.000020200000000,-0.000190000000000,0.266000000000000,0.000726000000000,-0.270000000000000,0.000144000000000,0.000753000000000,0.620000000000000,0.780000000000000,
252000.000000000000000,-0.000125000000000,-0.000105000000000,-0.000085500000000,-0.000000024900000,-0.000000021900000,0.000082600000000,0.000147000000000,-0.000020300000000,-0.000190000000000,0.267000000000000,0.000726000000000,-0.270000000000000,0.000144000000000,0.000753000000000,0.620000000000000,0.780000000000000,
252000.000000000000000,-0.000125000000000,-0.000105000000000,-0.000085600000000,-0.000000025600000,-0.000000011700000,0.000082600000000,0.000147000000000,-0.000020300000000,-0.000190000000000,0.267000000000000,0.000727000000000,-0.270000000000000,0.000150000000000,0.000755000000000,0.620000000000000,0.780000000000000,
252000.000000000000000,-0.000125000000000,-0.000105000000000,-0.000085600000000,-0.000000025800000,-0.000000010700000,0.000082600000000,0.000147000000000,-0.000020300000000,-0.000190000000000,0.267000000000000,0.000727000000000,-0.270000000000000,0.000151000000000,0.000756000000000,0.620000000000000,0.780000000000000,
252000.000000000000000,-0.000125000000000,-0.000105000000000,-0.000085600000000,-0.000000025300000,-0.000000017100000,0.000082600000000,0.000147000000000,-0.000020300000000,-0.000190000000000,0.267000000000000,0.000727000000000,-0.271000000000000,0.000148000000000,0.000755000000000,0.620000000000000,0.781000000000000,
252000.000000000000000,-0.000125000000000,-0.000105000000000,-0.000085600000000,-0.000000025000000,-0.000000022500000,0.000082700000000,0.000147000000000,-0.000020300000000,-0.000190000000000,0.268000000000000,0.000727000000000,-0.271000000000000,0.000145000000000,0.000754000000000,0.621000000000000,0.781000000000000,
252000.000000000000000,-0.000125000000000,-0.000105000000000,-0.000085700000000,-0.000000025300000,-0.000000018500000,0.000082700000000,0.000147000000000,-0.000020400000000,-0.000190000000000,0.268000000000000,0.000728000000000,-0.271000000000000,0.000148000000000,0.000755000000000,0.621000000000000,0.781000000000000,
252000.000000000000000,-0.000125000000000,-0.000105000000000,-0.000085700000000,-0.000000025700000,-0.000000011900000,0.000082700000000,0.000147000000000,-0.000020400000000,-0.000190000000000,0.268000000000000,0.000728000000000,-0.271000000000000,0.000153000000000,0.000758000000000,0.621000000000000,0.782000000000000,
253000.000000000000000,-0.000125000000000,-0.000105000000000,-0.000085700000000,-0.000000025300000,-0.000000017800000,0.000082700000000,0.000147000000000,-0.000020400000000,-0.000190000000000,0.268000000000000,0.000728000000000,-0.271000000000000,0.000149000000000,0.000756000000000,0.621000000000000,0.782000000000000,
253000.000000000000000,-0.000125000000000,-0.000105000000000,-0.000085700000000,-0.000000024800000,-0.000000025500000,0.000082700000000,0.000147000000000,-0.000020400000000,-0.000190000000000,0.268000000000000,0.000728000000000,-0.272000000000000,0.000145000000000,0.000755000000000,0.621000000000000,0.782000000000000,
253000.000000000000000,-0.000125000000000,-0.000105000000000,-0.000085700000000,-0.000000024800000,-0.000000025600000,0.000082700000000,0.000147000000000,-0.000020400000000,-0.000191000000000,0.269000000000000,0.000728000000000,-0.272000000000000,0.000145000000000,0.000755000000000,0.621000000000000,0.782000000000000,
253000.000000000000000,-0.000125000000000,-0.000105000000000,-0.000085700000000,-0.000000025300000,-0.000000018500000,0.000082700000000,0.000147000000000,-0.000020500000000,-0.000191000000000,0.269000000000000,0.000729000000000,-0.272000000000000,0.000149000000000,0.000756000000000,0.622000000000000,0.783000000000000,
253000.000000000000000,-0.000125000000000,-0.000105000000000,-0.000085800000000,-0.000000025600000,-0.000000014200000,0.000082700000000,0.000147000000000,-0.000020500000000,-0.000191000000000,0.269000000000000,0.000729000000000,-0.272000000000000,0.000151000000000,0.000756000000000,0.622000000000000,0.783000000000000,
253000.000000000000000,-0.000125000000000,-0.000105000000000,-0.000085800000000,-0.000000025100000,-0.000000021100000,0.000082800000000,0.000147000000000,-0.000020500000000,-0.000191000000000,0.269000000000000,0.000729000000000,-0.273000000000000,0.000146000000000,0.000754000000000,0.622000000000000,0.783000000000000,
253000.000000000000000,-0.000125000000000,-0.000105000000000,-0.000085800000000,-0.000000024900000,-0.000000023400000,0.000082800000000,0.000147000000000,-0.000020500000000,-0.000191000000000,0.269000000000000,0.000729000000000,-0.273000000000000,0.000145000000000,0.000753000000000,0.622000000000000,0.784000000000000,
253000.000000000000000,-0.000126000000000,-0.000105000000000,-0.000085800000000,-0.000000025400000,-0.000000016600000,0.000082800000000,0.000147000000000,-0.000020500000000,-0.000191000000000,0.270000000000000,0.000729000000000,-0.273000000000000,0.000148000000000,0.000754000000000,0.622000000000000,0.784000000000000,
253000.000000000000000,-0.000126000000000,-0.000106000000000,-0.000085900000000,-0.000000025900000,-0.000000009590000,0.000082800000000,0.000147000000000,-0.000020600000000,-0.000191000000000,0.270000000000000,0.000730000000000,-0.273000000000000,0.000152000000000,0.000755000000000,0.622000000000000,0.784000000000000,
253000.000000000000000,-0.000126000000000,-0.000106000000000,-0.000085900000000,-0.000000025800000,-0.000000010700000,0.000082800000000,0.000147000000000,-0.000020600000000,-0.000191000000000,0.270000000000000,0.000730000000000,-0.273000000000000,0.000152000000000,0.000755000000000,0.623000000000000,0.784000000000000,
254000.000000000000000,-0.000126000000000,-0.000106000000000,-0.000085900000000,-0.000000025300000,-0.000000019400000,0.000082800000000,0.000148000000000,-0.000020600000000,-0.000191000000000,0.270000000000000,0.000730000000000,-0.274000000000000,0.000147000000000,0.000753000000000,0.623000000000000,0.785000000000000,
254000.000000000000000,-0.000126000000000,-0.000106000000000,-0.000085900000000,-0.000000025300000,-0.000000019700000,0.000082800000000,0.000148000000000,-0.000020600000000,-0.000191000000000,0.270000000000000,0.000730000000000,-0.274000000000000,0.000148000000000,0.000754000000000,0.623000000000000,0.785000000000000,
254000.000000000000000,-0.000126000000000,-0.000106000000000,-0.000086000000000,-0.000000025800000,-0.000000013200000,0.000082800000000,0.000148000000000,-0.000020700000000,-0.000191000000000,0.271000000000000,0.000731000000000,-0.274000000000000,0.000152000000000,0.000756000000000,0.623000000000000,0.785000000000000,
254000.000000000000000,-0.000126000000000,-0.000106000000000,-0.000086000000000,-0.000000025800000,-0.000000013200000,0.000082900000000,0.000148000000000,-0.000020700000000,-0.000191000000000,0.271000000000000,0.000731000000000,-0.274000000000000,0.000152000000000,0.000756000000000,0.623000000000000,0.786000000000000,
254000.000000000000000,-0.000126000000000,-0.000106000000000,-0.000086000000000,-0.000000025300000,-0.000000020200000,0.000082900000000,0.000148000000000,-0.000020700000000,-0.000191000000000,0.271000000000000,0.000731000000000,-0.274000000000000,0.000149000000000,0.000756000000000,0.624000000000000,0.786000000000000,
254000.000000000000000,-0.000126000000000,-0.000106000000000,-0.000086000000000,-0.000000024800000,-0.000000027200000,0.000082900000000,0.000148000000000,-0.000020700000000,-0.000191000000000,0.271000000000000,0.000731000000000,-0.275000000000000,0.000145000000000,0.000754000000000,0.624000000000000,0.786000000000000,
254000.000000000000000,-0.000126000000000,-0.000106000000000,-0.000086000000000,-0.000000025100000,-0.000000022700000,0.000082900000000,0.000148000000000,-0.000020700000000,-0.000191000000000,0.271000000000000,0.000731000000000,-0.275000000000000,0.000148000000000,0.000755000000000,0.624000000000000,0.786000000000000,
254000.000000000000000,-0.000126000000000,-0.000106000000000,-0.000086000000000,-0.000000025500000,-0.000000015700000,0.000082900000000,0.000148000000000,-0.000020700000000,-0.000191000000000,0.272000000000000,0.000732000000000,-0.275000000000000,0.000152000000000,0.000756000000000,0.624000000000000,0.787000000000000,
254000.000000000000000,-0.000126000000000,-0.000106000000000,-0.000086000000000,-0.000000025200000,-0.000000018500000,0.000082900000000,0.000148000000000,-0.000020800000000,-0.000191000000000,0.272000000000000,0.000732000000000,-0.275000000000000,0.000150000000000,0.000755000000000,0.624000000000000,0.787000000000000,
254000.000000000000000,-0.000126000000000,-0.000106000000000,-0.000086000000000,-0.000000024800000,-0.000000023900000,0.000082900000000,0.000148000000000,-0.000020800000000,-0.000191000000000,0.272000000000000,0.000732000000000,-0.275000000000000,0.000146000000000,0.000753000000000,0.624000000000000,0.787000000000000,
255000.000000000000000,-0.000126000000000,-0.000106000000000,-0.000086100000000,-0.000000024900000,-0.000000024000000,0.000082900000000,0.000148000000000,-0.000020800000000,-0.000191000000000,0.272000000000000,0.000732000000000,-0.276000000000000,0.000146000000000,0.000752000000000,0.625000000000000,0.788000000000000,
255000.000000000000000,-0.000126000000000,-0.000106000000000,-0.000086100000000,-0.000000025700000,-0.000000015100000,0.000082900000000,0.000148000000000,-0.000020900000000,-0.000192000000000,0.273000000000000,0.000733000000000,-0.276000000000000,0.000151000000000,0.000754000000000,0.625000000000000,0.788000000000000,
255000.000000000000000,-0.000126000000000,-0.000106000000000,-0.000086200000000,-0.000000026300000,-0.000000009890000,0.000083000000000,0.000148000000000,-0.000020900000000,-0.000192000000000,0.273000000000000,0.000733000000000,-0.276000000000000,0.000153000000000,0.000755000000000,0.625000000000000,0.788000000000000,
255000.000000000000000,-0.000126000000000,-0.000106000000000,-0.000086200000000,-0.000000026100000,-0.000000015100000,0.000083000000000,0.000148000000000,-0.000020900000000,-0.000192000000000,0.273000000000000,0.000733000000000,-0.276000000000000,0.000150000000000,0.000753000000000,0.625000000000000,0.788000000000000,
255000.000000000000000,-0.000126000000000,-0.000106000000000,-0.000086100000000,-0.000000025900000,-0.000000017900000,0.000083000000000,0.000148000000000,-0.000020900000000,-0.000192000000000,0.273000000000000,0.000733000000000,-0.277000000000000,0.000148000000000,0.000753000000000,0.625000000000000,0.789000000000000,
255000.000000000000000,-0.000126000000000,-0.000106000000000,-0.000086100000000,-0.000000026000000,-0.000000014000000,0.000083000000000,0.000148000000000,-0.000020900000000,-0.000192000000000,0.273000000000000,0.000733000000000,-0.277000000000000,0.000151000000000,0.000754000000000,0.625000000000000,0.789000000000000,
255000.000000000000000,-0.000126000000000,-0.000106000000000,-0.000086200000000,-0.000000026000000,-0.000000008830000,0.000083000000000,0.000148000000000,-0.000020900000000,-0.000192000000000,0.274000000000000,0.000734000000000,-0.277000000000000,0.000155000000000,0.000756000000000,0.626000000000000,0.789000000000000,
255000.000000000000000,-0.000126000000000,-0.000106000000000,-0.000086200000000,-0.000000025300000,-0.000000013200000,0.000083000000000,0.000148000000000,-0.000020900000000,-0.000192000000000,0.274000000000000,0.000734000000000,-0.277000000000000,0.000153000000000,0.000755000000000,0.626000000000000,0.790000000000000,
255000.000000000000000,-0.000127000000000,-0.000106000000000,-0.000086200000000,-0.000000024200000,-0.000000025500000,0.000083000000000,0.000148000000000,-0.000020900000000,-0.000192000000000,0.274000000000000,0.000733000000000,-0.277000000000000,0.000148000000000,0.000753000000000,0.626000000000000,0.790000000000000,
255000.000000000000000,-0.000127000000000,-0.000106000000000,-0.000086200000000,-0.000000023900000,-0.000000030000000,0.000083000000000,0.000148000000000,-0.000021000000000,-0.000192000000000,0.274000000000000,0.000734000000000,-0.278000000000000,0.000147000000000,0.000752000000000,0.626000000000000,0.790000000000000,
256000.000000000000000,-0.000127000000000,-0.000106000000000,-0.000086300000000,-0.000000024300000,-0.000000026700000,0.000083100000000,0.000148000000000,-0.000021000000000,-0.000192000000000,0.275000000000000,0.000734000000000,-0.278000000000000,0.000149000000000,0.000752000000000,0.626000000000000,0.791000000000000,
256000.000000000000000,-0.000127000000000,-0.000106000000000,-0.000086400000000,-0.000000024900000,-0.000000024300000,0.000083100000000,0.000148000000000,-0.000021100000000,-0.000192000000000,0.275000000000000,0.000734000000000,-0.278000000000000,0.000151000000000,0.000753000000000,0.627000000000000,0.791000000000000,
256000.000000000000000,-0.000127000000000,-0.000106000000000,-0.000086400000000,-0.000000025100000,-0.000000027400000,0.000083100000000,0.000148000000000,-0.000021100000000,-0.000192000000000,0.275000000000000,0.000735000000000,-0.279000000000000,0.000148000000000,0.000752000000000,0.627000000000000,0.791000000000000,
256000.000000000000000,-0.000127000000000,-0.000106000000000,-0.000086300000000,-0.000000025200000,-0.000000029400000,0.000083100000000,0.000148000000000,-0.000021000000000,-0.000192000000000,0.275000000000000,0.000735000000000,-0.279000000000000,0.000146000000000,0.000751000000000,0.627000000000000,0.792000000000000,
256000.000000000000000,-0.000127000000000,-0.000106000000000,-0.000086300000000,-0.000000025800000,-0.000000021000000,0.000083100000000,0.000148000000000,-0.000021000000000,-0.000192000000000,0.276000000000000,0.000735000000000,-0.279000000000000,0.000150000000000,0.000752000000000,0.627000000000000,0.792000000000000,
256000.000000000000000,-0.000127000000000,-0.000106000000000,-0.000086300000000,-0.000000026300000,-0.000000011000000,0.000083100000000,0.000148000000000,-0.000021000000000,-0.000192000000000,0.276000000000000,0.000735000000000,-0.279000000000000,0.000155000000000,0.000754000000000,0.627000000000000,0.792000000000000,
256000.000000000000000,-0.000127000000000,-0.000106000000000,-0.000086300000000,-0.000000026200000,-0.000000010500000,0.000083200000000,0.000148000000000,-0.000021000000000,-0.000192000000000,0.276000000000000,0.000736000000000,-0.280000000000000,0.000155000000000,0.000753000000000,0.628000000000000,0.793000000000000,
256000.000000000000000,-0.000127000000000,-0.000106000000000,-0.000086200000000,-0.000000025600000,-0.000000015600000,0.000083200000000,0.000148000000000,-0.000020900000000,-0.000192000000000,0.277000000000000,0.000735000000000,-0.280000000000000,0.000152000000000,0.000751000000000,0.628000000000000,0.793000000000000,
256000.000000000000000,-0.000127000000000,-0.000106000000000,-0.000086200000000,-0.000000025200000,-0.000000018600000,0.000083200000000,0.000148000000000,-0.000020900000000,-0.000192000000000,0.277000000000000,0.000735000000000,-0.280000000000000,0.000151000000000,0.000751000000000,0.628000000000000,0.793000000000000,
256000.000000000000000,-0.000127000000000,-0.000106000000000,-0.000086300000000,-0.000000025200000,-0.000000014000000,0.000083200000000,0.000148000000000,-0.000020900000000,-0.000192000000000,0.277000000000000,0.000736000000000,-0.280000000000000,0.000155000000000,0.000752000000000,0.628000000000000,0.794000000000000,
257000.000000000000000,-0.000127000000000,-0.000106000000000,-0.000086300000000,-0.000000025100000,-0.000000013700000,0.000083200000000,0.000148000000000,-0.000021000000000,-0.000192000000000,0.277000000000000,0.000736000000000,-0.281000000000000,0.000155000000000,0.000752000000000,0.628000000000000,0.794000000000000,
257000.000000000000000,-0.000127000000000,-0.000106000000000,-0.000086300000000,-0.000000024200000,-0.000000022400000,0.000083200000000,0.000148000000000,-0.000021000000000,-0.000192000000000,0.278000000000000,0.000736000000000,-0.281000000000000,0.000151000000000,0.000751000000000,0.629000000000000,0.794000000000000,
257000.000000000000000,-0.000127000000000,-0.000106000000000,-0.000086300000000,-0.000000023500000,-0.000000029800000,0.000083200000000,0.000148000000000,-0.000021000000000,-0.000192000000000,0.278000000000000,0.000736000000000,-0.281000000000000,0.000148000000000,0.000750000000000,0.629000000000000,0.794000000000000,
257000.000000000000000,-0.000127000000000,-0.000107000000000,-0.000086300000000,-0.000000023600000,-0.000000028800000,0.000083300000000,0.000148000000000,-0.000021000000000,-0.000192000000000,0.278000000000000,0.000736000000000,-0.281000000000000,0.000150000000000,0.000750000000000,0.629000000000000,0.795000000000000,
257000.000000000000000,-0.000127000000000,-0.000107000000000,-0.000086400000000,-0.000000024000000,-0.000000022300000,0.000083300000000,0.000148000000000,-0.000021100000000,-0.000193000000000,0.278000000000000,0.000737000000000,-0.282000000000000,0.000154000000000,0.000752000000000,0.629000000000000,0.795000000000000,
257000.000000000000000,-0.000127000000000,-0.000107000000000,-0.000086400000000,-0.000000024000000,-0.000000021900000,0.000083300000000,0.000149000000000,-0.000021100000000,-0.000193000000000,0.279000000000000,0.000737000000000,-0.282000000000000,0.000154000000000,0.000752000000000,0.629000000000000,0.795000000000000,
257000.000000000000000,-0.000127000000000,-0.000107000000000,-0.000086400000000,-0.000000023600000,-0.000000027400000,0.000083300000000,0.000149000000000,-0.000021100000000,-0.000193000000000,0.279000000000000,0.000737000000000,-0.282000000000000,0.000151000000000,0.000750000000000,0.629000000000000,0.796000000000000,
257000.000000000000000,-0.000127000000000,-0.000107000000000,-0.000086500000000,-0.000000023800000,-0.000000026200000,0.000083300000000,0.000149000000000,-0.000021100000000,-0.000193000000000,0.279000000000000,0.000737000000000,-0.282000000000000,0.000151000000000,0.000749000000000,0.630000000000000,0.796000000000000,
257000.000000000000000,-0.000127000000000,-0.000107000000000,-0.000086500000000,-0.000000024400000,-0.000000019200000,0.000083300000000,0.000149000000000,-0.000021200000000,-0.000193000000000,0.279000000000000,0.000737000000000,-0.283000000000000,0.000155000000000,0.000750000000000,0.630000000000000,0.796000000000000,
257000.000000000000000,-0.000128000000000,-0.000107000000000,-0.000086500000000,-0.000000024800000,-0.000000013500000,0.000083300000000,0.000149000000000,-0.000021200000000,-0.000193000000000,0.280000000000000,0.000738000000000,-0.283000000000000,0.000158000000000,0.000751000000000,0.630000000000000,0.797000000000000,
258000.000000000000000,-0.000128000000000,-0.000107000000000,-0.000086600000000,-0.000000024700000,-0.000000017700000,0.000083300000000,0.000149000000000,-0.000021200000000,-0.000193000000000,0.280000000000000,0.000738000000000,-0.283000000000000,0.000155000000000,0.000749000000000,0.630000000000000,0.797000000000000,
258000.000000000000000,-0.000128000000000,-0.000107000000000,-0.000086600000000,-0.000000024300000,-0.000000024300000,0.000083400000000,0.000149000000000,-0.000021200000000,-0.000193000000000,0.280000000000000,0.000738000000000,-0.283000000000000,0.000151000000000,0.000747000000000,0.630000000000000,0.797000000000000,
258000.000000000000000,-0.000128000000000,-0.000107000000000,-0.000086600000000,-0.000000024500000,-0.000000023000000,0.000083400000000,0.000149000000000,-0.000021300000000,-0.000193000000000,0.280000000000000,0.000738000000000,-0.284000000000000,0.000152000000000,0.000748000000000,0.630000000000000,0.797000000000000,
258000.000000000000000,-0.000128000000000,-0.000107000000000,-0.000086600000000,-0.000000024800000,-0.000000019400000,0.000083400000000,0.000149000000000,-0.000021300000000,-0.000193000000000,0.280000000000000,0.000739000000000,-0.284000000000000,0.000154000000000,0.000749000000000,0.631000000000000,0.798000000000000,
258000.000000000000000,-0.000128000000000,-0.000107000000000,-0.000086700000000,-0.000000024800000,-0.000000021300000,0.000083400000000,0.000149000000000,-0.000021300000000,-0.000193000000000,0.281000000000000,0.000739000000000,-0.284000000000000,0.000153000000000,0.000749000000000,0.631000000000000,0.798000000000000,
258000.000000000000000,-0.000128000000000,-0.000107000000000,-0.000086700000000,-0.000000024300000,-0.000000029300000,0.000083400000000,0.000149000000000,-0.000021300000000,-0.000193000000000,0.281000000000000,0.000739000000000,-0.284000000000000,0.000149000000000,0.000748000000000,0.631000000000000,0.798000000000000,
258000.000000000000000,-0.000128000000000,-0.000107000000000,-0.000086700000000,-0.000000024100000,-0.000000033100000,0.000083400000000,0.000149000000000,-0.000021300000000,-0.000193000000000,0.281000000000000,0.000739000000000,-0.284000000000000,0.000147000000000,0.000747000000000,0.631000000000000,0.799000000000000,
258000.000000000000000,-0.000128000000000,-0.000107000000000,-0.000086700000000,-0.000000024700000,-0.000000027100000,0.000083400000000,0.000149000000000,-0.000021400000000,-0.000193000000000,0.281000000000000,0.000739000000000,-0.285000000000000,0.000151000000000,0.000749000000000,0.631000000000000,0.799000000000000,
258000.000000000000000,-0.000128000000000,-0.000107000000000,-0.000086800000000,-0.000000025000000,-0.000000022700000,0.000083500000000,0.000149000000000,-0.000021400000000,-0.000193000000000,0.282000000000000,0.000740000000000,-0.285000000000000,0.000154000000000,0.000750000000000,0.632000000000000,0.799000000000000,
258000.000000000000000,-0.000128000000000,-0.000107000000000,-0.000086800000000,-0.000000025100000,-0.000000024500000,0.000083500000000,0.000149000000000,-0.000021400000000,-0.000193000000000,0.282000000000000,0.000740000000000,-0.285000000000000,0.000153000000000,0.000750000000000,0.632000000000000,0.799000000000000,
259000.000000000000000,-0.000128000000000,-0.000107000000000,-0.000086700000000,-0.000000024900000,-0.000000027900000,0.000083500000000,0.000149000000000,-0.000021400000000,-0.000193000000000,0.282000000000000,0.000740000000000,-0.285000000000000,0.000151000000000,0.000750000000000,0.632000000000000,0.800000000000000,
259000.000000000000000,-0.000128000000000,-0.000107000000000,-0.000086800000000,-0.000000025100000,-0.000000024800000,0.000083500000000,0.000149000000000,-0.000021400000000,-0.000193000000000,0.282000000000000,0.000741000000000,-0.286000000000000,0.000153000000000,0.000750000000000,0.632000000000000,0.800000000000000,
259000.000000000000000,-0.000128000000000,-0.000107000000000,-0.000086800000000,-0.000000025800000,-0.000000016400000,0.000083500000000,0.000149000000000,-0.000021500000000,-0.000194000000000,0.282000000000000,0.000741000000000,-0.286000000000000,0.000157000000000,0.000752000000000,0.632000000000000,0.800000000000000,
259000.000000000000000,-0.000128000000000,-0.000107000000000,-0.000086900000000,-0.000000026000000,-0.000000015000000,0.000083500000000,0.000149000000000,-0.000021500000000,-0.000194000000000,0.283000000000000,0.000741000000000,-0.286000000000000,0.000157000000000,0.000751000000000,0.632000000000000,0.801000000000000,
259000.000000000000000,-0.000128000000000,-0.000107000000000,-0.000086700000000,-0.000000026000000,-0.000000019800000,0.000083500000000,0.000149000000000,-0.000021400000000,-0.000193000000000,0.283000000000000,0.000741000000000,-0.286000000000000,0.000153000000000,0.000750000000000,0.632000000000000,0.801000000000000,
259000.000000000000000,-0.000128000000000,-0.000107000000000,-0.000086700000000,-0.000000025800000,-0.000000022000000,0.000083500000000,0.000149000000000,-0.000021400000000,-0.000193000000000,0.283000000000000,0.000741000000000,-0.286000000000000,0.000152000000000,0.000749000000000,0.633000000000000,0.801000000000000,
259000.000000000000000,-0.000128000000000,-0.000107000000000,-0.000086800000000,-0.000000025600000,-0.000000017300000,0.000083500000000,0.000149000000000,-0.000021500000000,-0.000194000000000,0.283000000000000,0.000741000000000,-0.286000000000000,0.000154000000000,0.000750000000000,0.633000000000000,0.801000000000000,
259000.000000000000000,-0.000128000000000,-0.000107000000000,-0.000086900000000,-0.000000026700000,-0.000000010600000,0.000083500000000,0.000149000000000,-0.000021600000000,-0.000194000000000,0.283000000000000,0.000741000000000,-0.287000000000000,0.000157000000000,0.000751000000000,0.633000000000000,0.801000000000000,
259000.000000000000000,-0.000128000000000,-0.000107000000000,-0.000086600000000,-0.000000027100000,-0.000000012100000,0.000083600000000,0.000149000000000,-0.000021300000000,-0.000193000000000,0.283000000000000,0.000742000000000,-0.287000000000000,0.000155000000000,0.000751000000000,0.633000000000000,0.802000000000000,
259000.000000000000000,-0.000128000000000,-0.000107000000000,-0.000086900000000,-0.000000026000000,-0.000000016900000,0.000083600000000,0.000149000000000,-0.000021500000000,-0.000194000000000,0.284000000000000,0.000742000000000,-0.287000000000000,0.000153000000000,0.000750000000000,0.633000000000000,0.802000000000000,
260000.000000000000000,-0.000128000000000,-0.000108000000000,-0.000086900000000,-0.000000027400000,-0.000000011300000,0.000083600000000,0.000149000000000,-0.000021500000000,-0.000194000000000,0.284000000000000,0.000742000000000,-0.287000000000000,0.000155000000000,0.000752000000000,0.633000000000000,0.802000000000000,
260000.000000000000000,-0.000128000000000,-0.000107000000000,-0.000086800000000,-0.000000028700000,-0.000000001520000,0.000083600000000,0.000149000000000,-0.000021400000000,-0.000194000000000,0.285000000000000,0.000744000000000,-0.288000000000000,0.000158000000000,0.000755000000000,0.634000000000000,0.803000000000000,
260000.000000000000000,-0.000129000000000,-0.000108000000000,-0.000087200000000,-0.000000029400000,0.000000003530000,0.000083600000000,0.000149000000000,-0.000021800000000,-0.000194000000000,0.285000000000000,0.000744000000000,-0.289000000000000,0.000159000000000,0.000758000000000,0.634000000000000,0.803000000000000,
260000.000000000000000,-0.000129000000000,-0.000108000000000,-0.000086900000000,-0.000000031700000,0.000000005530000,0.000083700000000,0.000149000000000,-0.000021500000000,-0.000194000000000,0.286000000000000,0.000745000000000,-0.289000000000000,0.000156000000000,0.000760000000000,0.634000000000000,0.804000000000000,
260000.000000000000000,-0.000129000000000,-0.000108000000000,-0.000087400000000,-0.000000032700000,0.000000008770000,0.000083700000000,0.000149000000000,-0.000021900000000,-0.000194000000000,0.287000000000000,0.000746000000000,-0.290000000000000,0.000155000000000,0.000763000000000,0.635000000000000,0.805000000000000,
260000.000000000000000,-0.000129000000000,-0.000108000000000,-0.000087200000000,-0.000000035100000,0.000000023200000,0.000083800000000,0.000150000000000,-0.000021700000000,-0.000194000000000,0.288000000000000,0.000747000000000,-0.291000000000000,0.000159000000000,0.000767000000000,0.635000000000000,0.806000000000000,
260000.000000000000000,-0.000129000000000,-0.000108000000000,-0.000087300000000,-0.000000036100000,0.000000036800000,0.000083800000000,0.000150000000000,-0.000021800000000,-0.000195000000000,0.288000000000000,0.000749000000000,-0.292000000000000,0.000163000000000,0.000771000000000,0.635000000000000,0.806000000000000,
260000.000000000000000,-0.000129000000000,-0.000108000000000,-0.000087300000000,-0.000000036100000,0.000000034600000,0.000083800000000,0.000150000000000,-0.000021800000000,-0.000195000000000,0.289000000000000,0.000748000000000,-0.292000000000000,0.000161000000000,0.000770000000000,0.635000000000000,0.807000000000000,
260000.000000000000000,-0.000129000000000,-0.000108000000000,-0.000087400000000,-0.000000035900000,0.000000020500000,0.000083900000000,0.000150000000000,-0.000021800000000,-0.000195000000000,0.290000000000000,0.000749000000000,-0.293000000000000,0.000155000000000,0.000766000000000,0.636000000000000,0.808000000000000,
260000.000000000000000,-0.000129000000000,-0.000108000000000,-0.000087600000000,-0.000000036600000,0.000000022200000,0.000083900000000,0.000150000000000,-0.000022000000000,-0.000195000000000,0.290000000000000,0.000749000000000,-0.294000000000000,0.000155000000000,0.000766000000000,0.636000000000000,0.808000000000000,
261000.000000000000000,-0.000129000000000,-0.000108000000000,-0.000087200000000,-0.000000037900000,0.000000035600000,0.000083900000000,0.000150000000000,-0.000021600000000,-0.000195000000000,0.291000000000000,0.000749000000000,-0.294000000000000,0.000162000000000,0.000768000000000,0.636000000000000,0.809000000000000,
261000.000000000000000,-0.000129000000000,-0.000108000000000,-0.000087300000000,-0.000000037400000,0.000000037900000,0.000084000000000,0.000150000000000,-0.000021700000000,-0.000195000000000,0.292000000000000,0.000749000000000,-0.295000000000000,0.000164000000000,0.000768000000000,0.637000000000000,0.809000000000000,
261000.000000000000000,-0.000129000000000,-0.000108000000000,-0.000087000000000,-0.000000036500000,0.000000031100000,0.000084000000000,0.000150000000000,-0.000021400000000,-0.000195000000000,0.292000000000000,0.000749000000000,-0.296000000000000,0.000161000000000,0.000766000000000,0.637000000000000,0.810000000000000,
261000.000000000000000,-0.000129000000000,-0.000108000000000,-0.000087200000000,-0.000000035700000,0.000000024000000,0.000084000000000,0.000150000000000,-0.000021500000000,-0.000195000000000,0.293000000000000,0.000748000000000,-0.296000000000000,0.000159000000000,0.000765000000000,0.637000000000000,0.810000000000000,
261000.000000000000000,-0.000129000000000,-0.000108000000000,-0.000087100000000,-0.000000035600000,0.000000025300000,0.000084000000000,0.000150000000000,-0.000021400000000,-0.000195000000000,0.293000000000000,0.000749000000000,-0.296000000000000,0.000161000000000,0.000765000000000,0.637000000000000,0.811000000000000,
261000.000000000000000,-0.000129000000000,-0.000108000000000,-0.000087200000000,-0.000000035800000,0.000000027600000,0.000084100000000,0.000150000000000,-0.000021600000000,-0.000195000000000,0.293000000000000,0.000749000000000,-0.297000000000000,0.000163000000000,0.000765000000000,0.638000000000000,0.811000000000000,
261000.000000000000000,-0.000129000000000,-0.000108000000000,-0.000087200000000,-0.000000035600000,0.000000024800000,0.000084100000000,0.000150000000000,-0.000021500000000,-0.000195000000000,0.294000000000000,0.000749000000000,-0.297000000000000,0.000163000000000,0.000765000000000,0.638000000000000,0.812000000000000,
261000.000000000000000,-0.000129000000000,-0.000108000000000,-0.000087300000000,-0.000000034800000,0.000000016300000,0.000084100000000,0.000150000000000,-0.000021600000000,-0.000195000000000,0.294000000000000,0.000749000000000,-0.297000000000000,0.000159000000000,0.000763000000000,0.638000000000000,0.812000000000000,
261000.000000000000000,-0.000129000000000,-0.000108000000000,-0.000087300000000,-0.000000034800000,0.000000016200000,0.000084100000000,0.000150000000000,-0.000021600000000,-0.000195000000000,0.294000000000000,0.000750000000000,-0.298000000000000,0.000160000000000,0.000763000000000,0.638000000000000,0.812000000000000,
261000.000000000000000,-0.000129000000000,-0.000108000000000,-0.000087300000000,-0.000000035000000,0.000000022100000,0.000084100000000,0.000150000000000,-0.000021600000000,-0.000195000000000,0.295000000000000,0.000750000000000,-0.298000000000000,0.000164000000000,0.000764000000000,0.638000000000000,0.813000000000000,
262000.000000000000000,-0.000129000000000,-0.000108000000000,-0.000087400000000,-0.000000035200000,0.000000025700000,0.000084100000000,0.000150000000000,-0.000021700000000,-0.000195000000000,0.295000000000000,0.000750000000000,-0.298000000000000,0.000166000000000,0.000765000000000,0.639000000000000,0.813000000000000,
262000.000000000000000,-0.000129000000000,-0.000108000000000,-0.000087400000000,-0.000000034700000,0.000000021300000,0.000084100000000,0.000150000000000,-0.000021700000000,-0.000195000000000,0.295000000000000,0.000750000000000,-0.299000000000000,0.000164000000000,0.000763000000000,0.639000000000000,0.813000000000000,
262000.000000000000000,-0.000130000000000,-0.000108000000000,-0.000087400000000,-0.000000034300000,0.000000016400000,0.000084200000000,0.000150000000000,-0.000021700000000,-0.000195000000000,0.295000000000000,0.000750000000000,-0.299000000000000,0.000161000000000,0.000762000000000,0.639000000000000,0.814000000000000,
262000.000000000000000,-0.000130000000000,-0.000108000000000,-0.000087400000000,-0.000000034300000,0.000000018800000,0.000084200000000,0.000150000000000,-0.000021700000000,-0.000195000000000,0.296000000000000,0.000751000000000,-0.299000000000000,0.000162000000000,0.000762000000000,0.639000000000000,0.814000000000000,
262000.000000000000000,-0.000130000000000,-0.000108000000000,-0.000087400000000,-0.000000034600000,0.000000023900000,0.000084200000000,0.000150000000000,-0.000021800000000,-0.000195000000000,0.296000000000000,0.000751000000000,-0.299000000000000,0.000165000000000,0.000762000000000,0.639000000000000,0.814000000000000,
262000.000000000000000,-0.000130000000000,-0.000108000000000,-0.000087400000000,-0.000000034400000,0.000000022100000,0.000084200000000,0.000150000000000,-0.000021700000000,-0.000195000000000,0.296000000000000,0.000751000000000,-0.300000000000000,0.000164000000000,0.000762000000000,0.639000000000000,0.814000000000000,
262000.000000000000000,-0.000130000000000,-0.000108000000000,-0.000087400000000,-0.000000033900000,0.000000015600000,0.000084200000000,0.000150000000000,-0.000021700000000,-0.000195000000000,0.296000000000000,0.000751000000000,-0.300000000000000,0.000160000000000,0.000760000000000,0.640000000000000,0.815000000000000,
262000.000000000000000,-0.000130000000000,-0.000108000000000,-0.000087400000000,-0.000000033600000,0.000000012700000,0.000084200000000,0.000150000000000,-0.000021700000000,-0.000195000000000,0.297000000000000,0.000751000000000,-0.300000000000000,0.000159000000000,0.000760000000000,0.640000000000000,0.815000000000000,
262000.000000000000000,-0.000130000000000,-0.000108000000000,-0.000087500000000,-0.000000033800000,0.000000017400000,0.000084200000000,0.000150000000000,-0.000021800000000,-0.000195000000000,0.297000000000000,0.000752000000000,-0.300000000000000,0.000162000000000,0.000761000000000,0.640000000000000,0.815000000000000,
262000.000000000000000,-0.000130000000000,-0.000109000000000,-0.000087500000000,-0.000000034000000,0.000000021300000,0.000084300000000,0.000150000000000,-0.000021800000000,-0.000196000000000,0.297000000000000,0.000752000000000,-0.301000000000000,0.000165000000000,0.000762000000000,0.640000000000000,0.816000000000000,
263000.000000000000000,-0.000130000000000,-0.000109000000000,-0.000087500000000,-0.000000033700000,0.000000017500000,0.000084300000000,0.000151000000000,-0.000021800000000,-0.000196000000000,0.297000000000000,0.000752000000000,-0.301000000000000,0.000163000000000,0.000762000000000,0.640000000000000,0.816000000000000,
263000.000000000000000,-0.000130000000000,-0.000109000000000,-0.000087500000000,-0.000000033300000,0.000000013000000,0.000084300000000,0.000151000000000,-0.000021800000000,-0.000196000000000,0.298000000000000,0.000752000000000,-0.301000000000000,0.000161000000000,0.000762000000000,0.640000000000000,0.816000000000000,
263000.000000000000000,-0.000130000000000,-0.000109000000000,-0.000087500000000,-0.000000033400000,0.000000014700000,0.000084300000000,0.000151000000000,-0.000021800000000,-0.000196000000000,0.298000000000000,0.000752000000000,-0.301000000000000,0.000163000000000,0.000762000000000,0.641000000000000,0.816000000000000,
263000.000000000000000,-0.000130000000000,-0.000109000000000,-0.000087600000000,-0.000000033800000,0.000000020500000,0.000084300000000,0.000151000000000,-0.000021900000000,-0.000196000000000,0.298000000000000,0.000753000000000,-0.301000000000000,0.000166000000000,0.000764000000000,0.641000000000000,0.817000000000000,
263000.000000000000000,-0.000130000000000,-0.000109000000000,-0.000087600000000,-0.000000033800000,0.000000021300000,0.000084300000000,0.000151000000000,-0.000021900000000,-0.000196000000000,0.298000000000000,0.000753000000000,-0.302000000000000,0.000167000000000,0.000764000000000,0.641000000000000,0.817000000000000,
263000.000000000000000,-0.000130000000000,-0.000109000000000,-0.000087600000000,-0.000000033300000,0.000000015000000,0.000084300000000,0.000151000000000,-0.000021900000000,-0.000196000000000,0.298000000000000,0.000753000000000,-0.302000000000000,0.000164000000000,0.000763000000000,0.641000000000000,0.817000000000000,
263000.000000000000000,-0.000130000000000,-0.000109000000000,-0.000087600000000,-0.000000033000000,0.000000011800000,0.000084300000000,0.000151000000000,-0.000021900000000,-0.000196000000000,0.299000000000000,0.000753000000000,-0.302000000000000,0.000162000000000,0.000762000000000,0.641000000000000,0.818000000000000,
263000.000000000000000,-0.000130000000000,-0.000109000000000,-0.000087600000000,-0.000000033300000,0.000000015500000,0.000084400000000,0.000151000000000,-0.000021900000000,-0.000196000000000,0.299000000000000,0.000753000000000,-0.302000000000000,0.000164000000000,0.000762000000000,0.641000000000000,0.818000000000000,
263000.000000000000000,-0.000130000000000,-0.000109000000000,-0.000087700000000,-0.000000033500000,0.000000019700000,0.000084400000000,0.000151000000000,-0.000022000000000,-0.000196000000000,0.299000000000000,0.000754000000000,-0.303000000000000,0.000166000000000,0.000762000000000,0.642000000000000,0.818000000000000,
263000.000000000000000,-0.000130000000000,-0.000109000000000,-0.000087700000000,-0.000000033400000,0.000000017600000,0.000084400000000,0.000151000000000,-0.000022000000000,-0.000196000000000,0.299000000000000,0.000754000000000,-0.303000000000000,0.000165000000000,0.000762000000000,0.642000000000000,0.818000000000000,
264000.000000000000000,-0.000130000000000,-0.000109000000000,-0.000087700000000,-0.000000032900000,0.000000011600000,0.000084400000000,0.000151000000000,-0.000022000000000,-0.000196000000000,0.300000000000000,0.000754000000000,-0.303000000000000,0.000161000000000,0.000760000000000,0.642000000000000,0.819000000000000,
264000.000000000000000,-0.000130000000000,-0.000109000000000,-0.000087700000000,-0.000000033000000,0.000000012500000,0.000084400000000,0.000151000000000,-0.000022000000000,-0.000196000000000,0.300000000000000,0.000754000000000,-0.303000000000000,0.000161000000000,0.000760000000000,0.642000000000000,0.819000000000000,
264000.000000000000000,-0.000130000000000,-0.000109000000000,-0.000087700000000,-0.000000033400000,0.000000018600000,0.000084400000000,0.000151000000000,-0.000022000000000,-0.000196000000000,0.300000000000000,0.000755000000000,-0.303000000000000,0.000165000000000,0.000761000000000,0.642000000000000,0.819000000000000,
264000.000000000000000,-0.000131000000000,-0.000109000000000,-0.000087800000000,-0.000000033500000,0.000000021300000,0.000084400000000,0.000151000000000,-0.000022000000000,-0.000196000000000,0.300000000000000,0.000755000000000,-0.304000000000000,0.000167000000000,0.000762000000000,0.642000000000000,0.820000000000000,
264000.000000000000000,-0.000131000000000,-0.000109000000000,-0.000087800000000,-0.000000033200000,0.000000017100000,0.000084400000000,0.000151000000000,-0.000022100000000,-0.000196000000000,0.300000000000000,0.000755000000000,-0.304000000000000,0.000165000000000,0.000762000000000,0.642000000000000,0.820000000000000,
264000.000000000000000,-0.000131000000000,-0.000109000000000,-0.000087800000000,-0.000000032800000,0.000000012200000,0.000084500000000,0.000151000000000,-0.000022100000000,-0.000196000000000,0.301000000000000,0.000755000000000,-0.304000000000000,0.000163000000000,0.000761000000000,0.643000000000000,0.820000000000000,
264000.000000000000000,-0.000131000000000,-0.000109000000000,-0.000087800000000,-0.000000032900000,0.000000015000000,0.000084500000000,0.000151000000000,-0.000022100000000,-0.000196000000000,0.301000000000000,0.000755000000000,-0.304000000000000,0.000165000000000,0.000762000000000,0.643000000000000,0.820000000000000,
264000.000000000000000,-0.000131000000000,-0.000109000000000,-0.000087900000000,-0.000000033200000,0.000000019300000,0.000084500000000,0.000151000000000,-0.000022100000000,-0.000196000000000,0.301000000000000,0.000756000000000,-0.305000000000000,0.000168000000000,0.000763000000000,0.643000000000000,0.821000000000000,
264000.000000000000000,-0.000131000000000,-0.000109000000000,-0.000087900000000,-0.000000032900000,0.000000017100000,0.000084500000000,0.000151000000000,-0.000022100000000,-0.000196000000000,0.301000000000000,0.000756000000000,-0.305000000000000,0.000168000000000,0.000763000000000,0.643000000000000,0.821000000000000,
264000.000000000000000,-0.000131000000000,-0.000109000000000,-0.000087900000000,-0.000000032400000,0.000000010300000,0.000084500000000,0.000151000000000,-0.000022200000000,-0.000197000000000,0.302000000000000,0.000756000000000,-0.305000000000000,0.000164000000000,0.000762000000000,0.643000000000000,0.821000000000000,
265000.000000000000000,-0.000131000000000,-0.000109000000000,-0.000087900000000,-0.000000032100000,0.000000007360000,0.000084500000000,0.000151000000000,-0.000022200000000,-0.000197000000000,0.302000000000000,0.000756000000000,-0.305000000000000,0.000163000000000,0.000762000000000,0.643000000000000,0.821000000000000,
265000.000000000000000,-0.000131000000000,-0.000109000000000,-0.000087900000000,-0.000000032400000,0.000000011900000,0.000084500000000,0.000151000000000,-0.000022200000000,-0.000197000000000,0.302000000000000,0.000756000000000,-0.305000000000000,0.000165000000000,0.000762000000000,0.644000000000000,0.822000000000000,
265000.000000000000000,-0.000131000000000,-0.000109000000000,-0.000087900000000,-0.000000032700000,0.000000015600000,0.000084500000000,0.000151000000000,-0.000022200000000,-0.000197000000000,0.302000000000000,0.000757000000000,-0.306000000000000,0.000167000000000,0.000763000000000,0.644000000000000,0.822000000000000,
265000.000000000000000,-0.000131000000000,-0.000109000000000,-0.000087900000000,-0.000000032400000,0.000000012400000,0.000084600000000,0.000151000000000,-0.000022200000000,-0.000197000000000,0.302000000000000,0.000757000000000,-0.306000000000000,0.000165000000000,0.000762000000000,0.644000000000000,0.822000000000000,
265000.000000000000000,-0.000131000000000,-0.000109000000000,-0.000087900000000,-0.000000032100000,0.000000008530000,0.000084600000000,0.000151000000000,-0.000022200000000,-0.000197000000000,0.303000000000000,0.000757000000000,-0.306000000000000,0.000163000000000,0.000760000000000,0.644000000000000,0.823000000000000,
265000.000000000000000,-0.000131000000000,-0.000109000000000,-0.000088000000000,-0.000000032300000,0.000000011000000,0.000084600000000,0.000151000000000,-0.000022300000000,-0.000197000000000,0.303000000000000,0.000757000000000,-0.306000000000000,0.000164000000000,0.000760000000000,0.644000000000000,0.823000000000000,
265000.000000000000000,-0.000131000000000,-0.000109000000000,-0.000088000000000,-0.000000032800000,0.000000017900000,0.000084600000000,0.000151000000000,-0.000022300000000,-0.000197000000000,0.303000000000000,0.000758000000000,-0.306000000000000,0.000168000000000,0.000761000000000,0.644000000000000,0.823000000000000,
265000.000000000000000,-0.000131000000000,-0.000109000000000,-0.000088000000000,-0.000000033000000,0.000000019800000,0.000084600000000,0.000151000000000,-0.000022300000000,-0.000197000000000,0.303000000000000,0.000758000000000,-0.307000000000000,0.000169000000000,0.000762000000000,0.645000000000000,0.823000000000000,
265000.000000000000000,-0.000131000000000,-0.000109000000000,-0.000088100000000,-0.000000032600000,0.000000014500000,0.000084600000000,0.000151000000000,-0.000022300000000,-0.000197000000000,0.303000000000000,0.000758000000000,-0.307000000000000,0.000166000000000,0.000761000000000,0.645000000000000,0.824000000000000,
265000.000000000000000,-0.000131000000000,-0.000110000000000,-0.000088100000000,-0.000000032300000,0.000000011400000,0.000084600000000,0.000151000000000,-0.000022300000000,-0.000197000000000,0.304000000000000,0.000758000000000,-0.307000000000000,0.000165000000000,0.000761000000000,0.645000000000000,0.824000000000000,
266000.000000000000000,-0.000131000000000,-0.000110000000000,-0.000088100000000,-0.000000032500000,0.000000014100000,0.000084600000000,0.000151000000000,-0.000022400000000,-0.000197000000000,0.304000000000000,0.000758000000000,-0.307000000000000,0.000167000000000,0.000761000000000,0.645000000000000,0.824000000000000,
266000.000000000000000,-0.000131000000000,-0.000110000000000,-0.000088100000000,-0.000000032700000,0.000000017300000,0.000084600000000,0.000151000000000,-0.000022400000000,-0.000197000000000,0.304000000000000,0.000759000000000,-0.308000000000000,0.000169000000000,0.000763000000000,0.645000000000000,0.824000000000000,
266000.000000000000000,-0.000131000000000,-0.000110000000000,-0.000088200000000,-0.000000032400000,0.000000013500000,0.000084700000000,0.000151000000000,-0.000022400000000,-0.000197000000000,0.304000000000000,0.000759000000000,-0.308000000000000,0.000168000000000,0.000763000000000,0.645000000000000,0.825000000000000,
266000.000000000000000,-0.000132000000000,-0.000110000000000,-0.000088100000000,-0.000000031800000,0.000000006220000,0.000084700000000,0.000151000000000,-0.000022400000000,-0.000197000000000,0.305000000000000,0.000759000000000,-0.308000000000000,0.000164000000000,0.000762000000000,0.646000000000000,0.825000000000000,
266000.000000000000000,-0.000132000000000,-0.000110000000000,-0.000088200000000,-0.000000031700000,0.000000005320000,0.000084700000000,0.000151000000000,-0.000022400000000,-0.000197000000000,0.305000000000000,0.000759000000000,-0.308000000000000,0.000164000000000,0.000762000000000,0.646000000000000,0.825000000000000,
266000.000000000000000,-0.000132000000000,-0.000110000000000,-0.000088200000000,-0.000000032100000,0.000000010100000,0.000084700000000,0.000151000000000,-0.000022500000000,-0.000197000000000,0.305000000000000,0.000760000000000,-0.308000000000000,0.000167000000000,0.000763000000000,0.646000000000000,0.826000000000000,
266000.000000000000000,-0.000132000000000,-0.000110000000000,-0.000088200000000,-0.000000032300000,0.000000013000000,0.000084700000000,0.000151000000000,-0.000022500000000,-0.000197000000000,0.305000000000000,0.000760000000000,-0.309000000000000,0.000168000000000,0.000763000000000,0.646000000000000,0.826000000000000,
266000.000000000000000,-0.000132000000000,-0.000110000000000,-0.000088200000000,-0.000000032100000,0.000000009720000,0.000084700000000,0.000151000000000,-0.000022500000000,-0.000197000000000,0.305000000000000,0.000760000000000,-0.309000000000000,0.000166000000000,0.000762000000000,0.646000000000000,0.826000000000000,
266000.000000000000000,-0.000132000000000,-0.000110000000000,-0.000088200000000,-0.000000031900000,0.000000007040000,0.000084700000000,0.000152000000000,-0.000022500000000,-0.000197000000000,0.306000000000000,0.000760000000000,-0.309000000000000,0.000164000000000,0.000761000000000,0.646000000000000,0.826000000000000,
266000.000000000000000,-0.000132000000000,-0.000110000000000,-0.000088300000000,-0.000000032300000,0.000000011700000,0.000084700000000,0.000152000000000,-0.000022600000000,-0.000198000000000,0.306000000000000,0.000760000000000,-0.309000000000000,0.000167000000000,0.000762000000000,0.646000000000000,0.827000000000000,
267000.000000000000000,-0.000132000000000,-0.000110000000000,-0.000088300000000,-0.000000032800000,0.000000018300000,0.000084800000000,0.000152000000000,-0.000022600000000,-0.000198000000000,0.306000000000000,0.000761000000000,-0.310000000000000,0.000170000000000,0.000762000000000,0.647000000000000,0.827000000000000,
267000.000000000000000,-0.000132000000000,-0.000110000000000,-0.000088300000000,-0.000000032900000,0.000000019000000,0.000084800000000,0.000152000000000,-0.000022600000000,-0.000198000000000,0.306000000000000,0.000761000000000,-0.310000000000000,0.000170000000000,0.000762000000000,0.647000000000000,0.827000000000000,
267000.000000000000000,-0.000132000000000,-0.000110000000000,-0.000088300000000,-0.000000032500000,0.000000013900000,0.000084800000000,0.000152000000000,-0.000022600000000,-0.000198000000000,0.307000000000000,0.000761000000000,-0.310000000000000,0.000167000000000,0.000761000000000,0.647000000000000,0.827000000000000,
267000.000000000000000,-0.000132000000000,-0.000110000000000,-0.000088300000000,-0.000000032300000,0.000000011400000,0.000084800000000,0.000152000000000,-0.000022600000000,-0.000198000000000,0.307000000000000,0.000761000000000,-0.310000000000000,0.000166000000000,0.000761000000000,0.647000000000000,0.828000000000000,
267000.000000000000000,-0.000132000000000,-0.000110000000000,-0.000088400000000,-0.000000032500000,0.000000014800000,0.000084800000000,0.000152000000000,-0.000022700000000,-0.000198000000000,0.307000000000000,0.000762000000000,-0.310000000000000,0.000168000000000,0.000762000000000,0.647000000000000,0.828000000000000,
267000.000000000000000,-0.000132000000000,-0.000110000000000,-0.000088400000000,-0.000000032600000,0.000000016400000,0.000084800000000,0.000152000000000,-0.000022700000000,-0.000198000000000,0.307000000000000,0.000762000000000,-0.311000000000000,0.000170000000000,0.000763000000000,0.647000000000000,0.828000000000000,
267000.000000000000000,-0.000132000000000,-0.000110000000000,-0.000088400000000,-0.000000032200000,0.000000011400000,0.000084800000000,0.000152000000000,-0.000022700000000,-0.000198000000000,0.307000000000000,0.000762000000000,-0.311000000000000,0.000167000000000,0.000762000000000,0.648000000000000,0.829000000000000,
267000.000000000000000,-0.000132000000000,-0.000110000000000,-0.000088400000000,-0.000000031700000,0.000000004930000,0.000084800000000,0.000152000000000,-0.000022700000000,-0.000198000000000,0.308000000000000,0.000762000000000,-0.311000000000000,0.000164000000000,0.000762000000000,0.648000000000000,0.829000000000000,
267000.000000000000000,-0.000132000000000,-0.000110000000000,-0.000088500000000,-0.000000031700000,0.000000004750000,0.000084900000000,0.000152000000000,-0.000022700000000,-0.000198000000000,0.308000000000000,0.000762000000000,-0.311000000000000,0.000165000000000,0.000762000000000,0.648000000000000,0.829000000000000,
267000.000000000000000,-0.000132000000000,-0.000110000000000,-0.000088500000000,-0.000000032100000,0.000000009910000,0.000084900000000,0.000152000000000,-0.000022800000000,-0.000198000000000,0.308000000000000,0.000763000000000,-0.312000000000000,0.000168000000000,0.000763000000000,0.648000000000000,0.829000000000000,
268000.000000000000000,-0.000132000000000,-0.000110000000000,-0.000088500000000,-0.000000032200000,0.000000011400000,0.000084900000000,0.000152000000000,-0.000022800000000,-0.000198000000000,0.308000000000000,0.000763000000000,-0.312000000000000,0.000169000000000,0.000764000000000,0.648000000000000,0.830000000000000,
268000.000000000000000,-0.000132000000000,-0.000110000000000,-0.000088500000000,-0.000000032000000,0.000000007960000,0.000084900000000,0.000152000000000,-0.000022800000000,-0.000198000000000,0.308000000000000,0.000763000000000,-0.312000000000000,0.000167000000000,0.000763000000000,0.648000000000000,0.830000000000000,
268000.000000000000000,-0.000132000000000,-0.000110000000000,-0.000088500000000,-0.000000031900000,0.000000006850000,0.000084900000000,0.000152000000000,-0.000022800000000,-0.000198000000000,0.309000000000000,0.000763000000000,-0.312000000000000,0.000166000000000,0.000762000000000,0.648000000000000,0.830000000000000,
268000.000000000000000,-0.000133000000000,-0.000110000000000,-0.000088600000000,-0.000000032300000,0.000000012000000,0.000084900000000,0.000152000000000,-0.000022900000000,-0.000198000000000,0.309000000000000,0.000764000000000,-0.312000000000000,0.000169000000000,0.000763000000000,0.649000000000000,0.830000000000000,
268000.000000000000000,-0.000133000000000,-0.000110000000000,-0.000088600000000,-0.000000032800000,0.000000018100000,0.000084900000000,0.000152000000000,-0.000022900000000,-0.000198000000000,0.309000000000000,0.000764000000000,-0.313000000000000,0.000172000000000,0.000764000000000,0.649000000000000,0.831000000000000,
268000.000000000000000,-0.000133000000000,-0.000110000000000,-0.000088600000000,-0.000000032700000,0.000000017200000,0.000084900000000,0.000152000000000,-0.000022900000000,-0.000198000000000,0.309000000000000,0.000764000000000,-0.313000000000000,0.000171000000000,0.000763000000000,0.649000000000000,0.831000000000000,
268000.000000000000000,-0.000133000000000,-0.000110000000000,-0.000088600000000,-0.000000032400000,0.000000012400000,0.000084900000000,0.000152000000000,-0.000022900000000,-0.000198000000000,0.310000000000000,0.000764000000000,-0.313000000000000,0.000168000000000,0.000762000000000,0.649000000000000,0.831000000000000,
268000.000000000000000,-0.000133000000000,-0.000111000000000,-0.000088600000000,-0.000000032300000,0.000000011700000,0.000085000000000,0.000152000000000,-0.000022900000000,-0.000198000000000,0.310000000000000,0.000765000000000,-0.313000000000000,0.000168000000000,0.000762000000000,0.649000000000000,0.832000000000000,
268000.000000000000000,-0.000133000000000,-0.000111000000000,-0.000088700000000,-0.000000032600000,0.000000015200000,0.000085000000000,0.000152000000000,-0.000023000000000,-0.000199000000000,0.310000000000000,0.000765000000000,-0.313000000000000,0.000170000000000,0.000762000000000,0.649000000000000,0.832000000000000,
268000.000000000000000,-0.000133000000000,-0.000111000000000,-0.000088700000000,-0.000000032700000,0.000000015900000,0.000085000000000,0.000152000000000,-0.000023000000000,-0.000199000000000,0.310000000000000,0.000765000000000,-0.314000000000000,0.000170000000000,0.000763000000000,0.650000000000000,0.832000000000000,
269000.000000000000000,-0.000133000000000,-0.000111000000000,-0.000088700000000,-0.000000032200000,0.000000010100000,0.000085000000000,0.000152000000000,-0.000023000000000,-0.000199000000000,0.310000000000000,0.000765000000000,-0.314000000000000,0.000167000000000,0.000762000000000,0.650000000000000,0.832000000000000,
269000.000000000000000,-0.000133000000000,-0.000111000000000,-0.000088700000000,-0.000000031800000,0.000000005090000,0.000085000000000,0.000152000000000,-0.000023000000000,-0.000199000000000,0.311000000000000,0.000765000000000,-0.314000000000000,0.000165000000000,0.000762000000000,0.650000000000000,0.833000000000000,
269000.000000000000000,-0.000133000000000,-0.000111000000000,-0.000088700000000,-0.000000032000000,0.000000007420000,0.000085000000000,0.000152000000000,-0.000023000000000,-0.000199000000000,0.311000000000000,0.000766000000000,-0.314000000000000,0.000167000000000,0.000763000000000,0.650000000000000,0.833000000000000,
269000.000000000000000,-0.000133000000000,-0.000111000000000,-0.000088800000000,-0.000000032400000,0.000000012400000,0.000085000000000,0.000152000000000,-0.000023100000000,-0.000199000000000,0.311000000000000,0.000766000000000,-0.315000000000000,0.000170000000000,0.000764000000000,0.650000000000000,0.833000000000000,
269000.000000000000000,-0.000133000000000,-0.000111000000000,-0.000088800000000,-0.000000032300000,0.000000011800000,0.000085000000000,0.000152000000000,-0.000023000000000,-0.000199000000000,0.311000000000000,0.000766000000000,-0.315000000000000,0.000170000000000,0.000764000000000,0.650000000000000,0.833000000000000,
269000.000000000000000,-0.000133000000000,-0.000111000000000,-0.000088800000000,-0.000000031800000,0.000000005660000,0.000085100000000,0.000152000000000,-0.000023100000000,-0.000199000000000,0.312000000000000,0.000766000000000,-0.315000000000000,0.000167000000000,0.000763000000000,0.650000000000000,0.834000000000000,
269000.000000000000000,-0.000133000000000,-0.000111000000000,-0.000088900000000,-0.000000031900000,0.000000004790000,0.000085100000000,0.000152000000000,-0.000023100000000,-0.000199000000000,0.312000000000000,0.000767000000000,-0.315000000000000,0.000167000000000,0.000763000000000,0.651000000000000,0.834000000000000,
269000.000000000000000,-0.000133000000000,-0.000111000000000,-0.000088900000000,-0.000000032900000,0.000000014900000,0.000085100000000,0.000152000000000,-0.000023200000000,-0.000199000000000,0.312000000000000,0.000767000000000,-0.316000000000000,0.000171000000000,0.000765000000000,0.651000000000000,0.834000000000000,
269000.000000000000000,-0.000133000000000,-0.000111000000000,-0.000088800000000,-0.000000033200000,0.000000024000000,0.000085100000000,0.000152000000000,-0.000023100000000,-0.000199000000000,0.313000000000000,0.000767000000000,-0.316000000000000,0.000176000000000,0.000767000000000,0.651000000000000,0.835000000000000,
269000.000000000000000,-0.000133000000000,-0.000111000000000,-0.000088800000000,-0.000000031700000,0.000000016500000,0.000085100000000,0.000152000000000,-0.000023000000000,-0.000199000000000,0.313000000000000,0.000767000000000,-0.317000000000000,0.000173000000000,0.000763000000000,0.651000000000000,0.835000000000000,
270000.000000000000000,-0.000133000000000,-0.000111000000000,-0.000089000000000,-0.000000030500000,0.000000000396000,0.000085100000000,0.000152000000000,-0.000023200000000,-0.000199000000000,0.314000000000000,0.000767000000000,-0.317000000000000,0.000168000000000,0.000758000000000,0.651000000000000,0.836000000000000,
270000.000000000000000,-0.000134000000000,-0.000111000000000,-0.000089000000000,-0.000000030900000,-0.000000001480000,0.000085200000000,0.000152000000000,-0.000023300000000,-0.000199000000000,0.314000000000000,0.000767000000000,-0.318000000000000,0.000167000000000,0.000757000000000,0.652000000000000,0.836000000000000,
270000.000000000000000,-0.000134000000000,-0.000111000000000,-0.000089100000000,-0.000000033200000,0.000000006210000,0.000085200000000,0.000153000000000,-0.000023300000000,-0.000199000000000,0.315000000000000,0.000768000000000,-0.318000000000000,0.000170000000000,0.000759000000000,0.652000000000000,0.837000000000000,
270000.000000000000000,-0.000134000000000,-0.000111000000000,-0.000089000000000,-0.000000033700000,0.000000008230000,0.000085200000000,0.000153000000000,-0.000023200000000,-0.000199000000000,0.315000000000000,0.000768000000000,-0.319000000000000,0.000171000000000,0.000759000000000,0.652000000000000,0.837000000000000,
270000.000000000000000,-0.000134000000000,-0.000111000000000,-0.000088900000000,-0.000000033200000,0.000000003360000,0.000085300000000,0.000153000000000,-0.000023100000000,-0.000199000000000,0.316000000000000,0.000768000000000,-0.320000000000000,0.000168000000000,0.000759000000000,0.652000000000000,0.838000000000000,
270000.000000000000000,-0.000134000000000,-0.000111000000000,-0.000089000000000,-0.000000032600000,-0.000000001470000,0.000085300000000,0.000153000000000,-0.000023100000000,-0.000199000000000,0.317000000000000,0.000769000000000,-0.320000000000000,0.000166000000000,0.000758000000000,0.653000000000000,0.838000000000000,
270000.000000000000000,-0.000134000000000,-0.000111000000000,-0.000089000000000,-0.000000033700000,0.000000005530000,0.000085300000000,0.000153000000000,-0.000023100000000,-0.000199000000000,0.317000000000000,0.000769000000000,-0.321000000000000,0.000168000000000,0.000760000000000,0.653000000000000,0.839000000000000,
270000.000000000000000,-0.000134000000000,-0.000111000000000,-0.000089100000000,-0.000000035400000,0.000000013200000,0.000085400000000,0.000153000000000,-0.000023200000000,-0.000200000000000,0.318000000000000,0.000770000000000,-0.321000000000000,0.000171000000000,0.000763000000000,0.653000000000000,0.840000000000000,
270000.000000000000000,-0.000134000000000,-0.000111000000000,-0.000088800000000,-0.000000035900000,0.000000015800000,0.000085400000000,0.000153000000000,-0.000022900000000,-0.000199000000000,0.319000000000000,0.000770000000000,-0.322000000000000,0.000171000000000,0.000765000000000,0.653000000000000,0.840000000000000,
270000.000000000000000,-0.000134000000000,-0.000111000000000,-0.000089200000000,-0.000000035800000,0.000000016800000,0.000085400000000,0.000153000000000,-0.000023200000000,-0.000200000000000,0.319000000000000,0.000771000000000,-0.323000000000000,0.000170000000000,0.000766000000000,0.654000000000000,0.841000000000000,
271000.000000000000000,-0.000134000000000,-0.000111000000000,-0.000089000000000,-0.000000037200000,0.000000025500000,0.000085500000000,0.000153000000000,-0.000023000000000,-0.000200000000000,0.320000000000000,0.000771000000000,-0.324000000000000,0.000173000000000,0.000769000000000,0.654000000000000,0.842000000000000,
271000.000000000000000,-0.000134000000000,-0.000111000000000,-0.000089200000000,-0.000000038800000,0.000000039300000,0.000085500000000,0.000153000000000,-0.000023200000000,-0.000200000000000,0.321000000000000,0.000772000000000,-0.324000000000000,0.000178000000000,0.000772000000000,0.654000000000000,0.842000000000000,
271000.000000000000000,-0.000134000000000,-0.000111000000000,-0.000089100000000,-0.000000040000000,0.000000049800000,0.000085500000000,0.000153000000000,-0.000023000000000,-0.000200000000000,0.321000000000000,0.000773000000000,-0.325000000000000,0.000182000000000,0.000774000000000,0.654000000000000,0.843000000000000,
271000.000000000000000,-0.000134000000000,-0.000111000000000,-0.000089100000000,-0.000000039300000,0.000000048100000,0.000085600000000,0.000153000000000,-0.000023100000000,-0.000200000000000,0.322000000000000,0.000773000000000,-0.325000000000000,0.000181000000000,0.000773000000000,0.655000000000000,0.843000000000000,
271000.000000000000000,-0.000134000000000,-0.000111000000000,-0.000089200000000,-0.000000038800000,0.000000045800000,0.000085600000000,0.000153000000000,-0.000023200000000,-0.000200000000000,0.322000000000000,0.000773000000000,-0.326000000000000,0.000179000000000,0.000771000000000,0.655000000000000,0.844000000000000,
271000.000000000000000,-0.000134000000000,-0.000111000000000,-0.000089200000000,-0.000000039000000,0.000000048800000,0.000085600000000,0.000153000000000,-0.000023100000000,-0.000200000000000,0.323000000000000,0.000774000000000,-0.326000000000000,0.000181000000000,0.000772000000000,0.655000000000000,0.844000000000000,
271000.000000000000000,-0.000134000000000,-0.000112000000000,-0.000089200000000,-0.000000039600000,0.000000050900000,0.000085600000000,0.000153000000000,-0.000023200000000,-0.000200000000000,0.323000000000000,0.000774000000000,-0.327000000000000,0.000182000000000,0.000772000000000,0.655000000000000,0.844000000000000,
271000.000000000000000,-0.000134000000000,-0.000111000000000,-0.000089200000000,-0.000000039100000,0.000000046300000,0.000085600000000,0.000153000000000,-0.000023100000000,-0.000200000000000,0.324000000000000,0.000774000000000,-0.327000000000000,0.000179000000000,0.000770000000000,0.655000000000000,0.845000000000000,
271000.000000000000000,-0.000134000000000,-0.000112000000000,-0.000089300000000,-0.000000038000000,0.000000034700000,0.000085600000000,0.000153000000000,-0.000023200000000,-0.000200000000000,0.324000000000000,0.000774000000000,-0.327000000000000,0.000174000000000,0.000768000000000,0.655000000000000,0.845000000000000,
271000.000000000000000,-0.000134000000000,-0.000112000000000,-0.000089300000000,-0.000000037400000,0.000000028300000,0.000085700000000,0.000153000000000,-0.000023200000000,-0.000200000000000,0.324000000000000,0.000774000000000,-0.328000000000000,0.000171000000000,0.000767000000000,0.656000000000000,0.845000000000000,
272000.000000000000000,-0.000134000000000,-0.000112000000000,-0.000089400000000,-0.000000037800000,0.000000030800000,0.000085700000000,0.000153000000000,-0.000023300000000,-0.000200000000000,0.324000000000000,0.000775000000000,-0.328000000000000,0.000173000000000,0.000768000000000,0.656000000000000,0.846000000000000,
272000.000000000000000,-0.000134000000000,-0.000112000000000,-0.000089400000000,-0.000000038200000,0.000000032100000,0.000085700000000,0.000153000000000,-0.000023300000000,-0.000201000000000,0.325000000000000,0.000775000000000,-0.328000000000000,0.000175000000000,0.000769000000000,0.656000000000000,0.846000000000000,
272000.000000000000000,-0.000134000000000,-0.000112000000000,-0.000089400000000,-0.000000037800000,0.000000028000000,0.000085700000000,0.000154000000000,-0.000023300000000,-0.000201000000000,0.325000000000000,0.000775000000000,-0.328000000000000,0.000173000000000,0.000769000000000,0.656000000000000,0.846000000000000,
272000.000000000000000,-0.000135000000000,-0.000112000000000,-0.000089400000000,-0.000000037500000,0.000000024100000,0.000085700000000,0.000154000000000,-0.000023400000000,-0.000201000000000,0.325000000000000,0.000775000000000,-0.329000000000000,0.000172000000000,0.000769000000000,0.656000000000000,0.847000000000000,
272000.000000000000000,-0.000135000000000,-0.000112000000000,-0.000089500000000,-0.000000037700000,0.000000027400000,0.000085700000000,0.000154000000000,-0.000023400000000,-0.000201000000000,0.325000000000000,0.000776000000000,-0.329000000000000,0.000175000000000,0.000770000000000,0.656000000000000,0.847000000000000,
272000.000000000000000,-0.000135000000000,-0.000112000000000,-0.000089500000000,-0.000000038600000,0.000000036400000,0.000085800000000,0.000154000000000,-0.000023400000000,-0.000201000000000,0.326000000000000,0.000776000000000,-0.329000000000000,0.000180000000000,0.000772000000000,0.657000000000000,0.847000000000000,
272000.000000000000000,-0.000135000000000,-0.000112000000000,-0.000089500000000,-0.000000038800000,0.000000039300000,0.000085800000000,0.000154000000000,-0.000023400000000,-0.000201000000000,0.326000000000000,0.000776000000000,-0.330000000000000,0.000182000000000,0.000772000000000,0.657000000000000,0.848000000000000,
272000.000000000000000,-0.000135000000000,-0.000112000000000,-0.000089500000000,-0.000000038400000,0.000000036400000,0.000085800000000,0.000154000000000,-0.000023400000000,-0.000201000000000,0.326000000000000,0.000776000000000,-0.330000000000000,0.000180000000000,0.000772000000000,0.657000000000000,0.848000000000000,
272000.000000000000000,-0.000135000000000,-0.000112000000000,-0.000089500000000,-0.000000038000000,0.000000033500000,0.000085800000000,0.000154000000000,-0.000023400000000,-0.000201000000000,0.326000000000000,0.000776000000000,-0.330000000000000,0.000178000000000,0.000771000000000,0.657000000000000,0.848000000000000,
272000.000000000000000,-0.000135000000000,-0.000112000000000,-0.000089500000000,-0.000000038200000,0.000000036100000,0.000085800000000,0.000154000000000,-0.000023400000000,-0.000201000000000,0.327000000000000,0.000777000000000,-0.330000000000000,0.000179000000000,0.000771000000000,0.657000000000000,0.848000000000000,
273000.000000000000000,-0.000135000000000,-0.000112000000000,-0.000089500000000,-0.000000038500000,0.000000039800000,0.000085800000000,0.000154000000000,-0.000023400000000,-0.000201000000000,0.327000000000000,0.000777000000000,-0.330000000000000,0.000181000000000,0.000771000000000,0.657000000000000,0.849000000000000,
273000.000000000000000,-0.000135000000000,-0.000112000000000,-0.000089500000000,-0.000000038000000,0.000000036300000,0.000085800000000,0.000154000000000,-0.000023400000000,-0.000201000000000,0.327000000000000,0.000777000000000,-0.331000000000000,0.000179000000000,0.000770000000000,0.657000000000000,0.849000000000000,
273000.000000000000000,-0.000135000000000,-0.000112000000000,-0.000089500000000,-0.000000037200000,0.000000029500000,0.000085800000000,0.000154000000000,-0.000023400000000,-0.000201000000000,0.327000000000000,0.000777000000000,-0.331000000000000,0.000175000000000,0.000768000000000,0.658000000000000,0.849000000000000,
273000.000000000000000,-0.000135000000000,-0.000112000000000,-0.000089500000000,-0.000000036800000,0.000000027000000,0.000085900000000,0.000154000000000,-0.000023400000000,-0.000201000000000,0.328000000000000,0.000777000000000,-0.331000000000000,0.000174000000000,0.000768000000000,0.658000000000000,0.849000000000000,
273000.000000000000000,-0.000135000000000,-0.000112000000000,-0.000089500000000,-0.000000037000000,0.000000030900000,0.000085900000000,0.000154000000000,-0.000023400000000,-0.000201000000000,0.328000000000000,0.000777000000000,-0.331000000000000,0.000177000000000,0.000768000000000,0.658000000000000,0.850000000000000,
273000.000000000000000,-0.000135000000000,-0.000112000000000,-0.000089500000000,-0.000000037100000,0.000000034100000,0.000085900000000,0.000154000000000,-0.000023400000000,-0.000201000000000,0.328000000000000,0.000777000000000,-0.332000000000000,0.000180000000000,0.000769000000000,0.658000000000000,0.850000000000000,
273000.000000000000000,-0.000135000000000,-0.000112000000000,-0.000089500000000,-0.000000036600000,0.000000030800000,0.000085900000000,0.000154000000000,-0.000023400000000,-0.000201000000000,0.328000000000000,0.000778000000000,-0.332000000000000,0.000179000000000,0.000768000000000,0.658000000000000,0.850000000000000,
273000.000000000000000,-0.000135000000000,-0.000112000000000,-0.000089600000000,-0.000000036100000,0.000000027000000,0.000085900000000,0.000154000000000,-0.000023500000000,-0.000201000000000,0.329000000000000,0.000778000000000,-0.332000000000000,0.000178000000000,0.000768000000000,0.658000000000000,0.851000000000000,
273000.000000000000000,-0.000135000000000,-0.000112000000000,-0.000089600000000,-0.000000036200000,0.000000028400000,0.000085900000000,0.000154000000000,-0.000023500000000,-0.000201000000000,0.329000000000000,0.000778000000000,-0.332000000000000,0.000180000000000,0.000769000000000,0.658000000000000,0.851000000000000,
273000.000000000000000,-0.000135000000000,-0.000112000000000,-0.000089700000000,-0.000000036500000,0.000000032300000,0.000085900000000,0.000154000000000,-0.000023600000000,-0.000201000000000,0.329000000000000,0.000779000000000,-0.333000000000000,0.000183000000000,0.000770000000000,0.659000000000000,0.851000000000000,
274000.000000000000000,-0.000135000000000,-0.000112000000000,-0.000089700000000,-0.000000036500000,0.000000032100000,0.000085900000000,0.000154000000000,-0.000023600000000,-0.000201000000000,0.329000000000000,0.000779000000000,-0.333000000000000,0.000184000000000,0.000770000000000,0.659000000000000,0.851000000000000,
274000.000000000000000,-0.000135000000000,-0.000112000000000,-0.000089700000000,-0.000000035900000,0.000000025000000,0.000085900000000,0.000154000000000,-0.000023600000000,-0.000201000000000,0.329000000000000,0.000779000000000,-0.333000000000000,0.000180000000000,0.000769000000000,0.659000000000000,0.852000000000000,
274000.000000000000000,-0.000135000000000,-0.000112000000000,-0.000089700000000,-0.000000035600000,0.000000020000000,0.000086000000000,0.000154000000000,-0.000023700000000,-0.000202000000000,0.330000000000000,0.000779000000000,-0.333000000000000,0.000177000000000,0.000768000000000,0.659000000000000,0.852000000000000,
274000.000000000000000,-0.000136000000000,-0.000112000000000,-0.000089800000000,-0.000000035800000,0.000000021200000,0.000086000000000,0.000154000000000,-0.000023700000000,-0.000202000000000,0.330000000000000,0.000779000000000,-0.333000000000000,0.000178000000000,0.000768000000000,0.659000000000000,0.852000000000000,
274000.000000000000000,-0.000136000000000,-0.000112000000000,-0.000089800000000,-0.000000036000000,0.000000023600000,0.000086000000000,0.000154000000000,-0.000023700000000,-0.000202000000000,0.330000000000000,0.000779000000000,-0.334000000000000,0.000179000000000,0.000768000000000,0.659000000000000,0.852000000000000,
274000.000000000000000,-0.000136000000000,-0.000112000000000,-0.000089800000000,-0.000000035800000,0.000000022200000,0.000086000000000,0.000154000000000,-0.000023700000000,-0.000202000000000,0.330000000000000,0.000780000000000,-0.334000000000000,0.000178000000000,0.000768000000000,0.660000000000000,0.853000000000000,
274000.000000000000000,-0.000136000000000,-0.000113000000000,-0.000089800000000,-0.000000035400000,0.000000017800000,0.000086000000000,0.000154000000000,-0.000023700000000,-0.000202000000000,0.331000000000000,0.000779000000000,-0.334000000000000,0.000175000000000,0.000767000000000,0.660000000000000,0.853000000000000,
274000.000000000000000,-0.000136000000000,-0.000113000000000,-0.000089800000000,-0.000000035500000,0.000000019400000,0.000086000000000,0.000154000000000,-0.000023700000000,-0.000202000000000,0.331000000000000,0.000780000000000,-0.334000000000000,0.000175000000000,0.000767000000000,0.660000000000000,0.853000000000000,
274000.000000000000000,-0.000136000000000,-0.000113000000000,-0.000089800000000,-0.000000036000000,0.000000026300000,0.000086000000000,0.000154000000000,-0.000023700000000,-0.000202000000000,0.331000000000000,0.000780000000000,-0.335000000000000,0.000179000000000,0.000767000000000,0.660000000000000,0.853000000000000,
274000.000000000000000,-0.000136000000000,-0.000113000000000,-0.000089800000000,-0.000000036200000,0.000000031300000,0.000086100000000,0.000154000000000,-0.000023700000000,-0.000202000000000,0.331000000000000,0.000780000000000,-0.335000000000000,0.000182000000000,0.000768000000000,0.660000000000000,0.854000000000000,
275000.000000000000000,-0.000136000000000,-0.000113000000000,-0.000089800000000,-0.000000035800000,0.000000030300000,0.000086100000000,0.000154000000000,-0.000023700000000,-0.000202000000000,0.332000000000000,0.000780000000000,-0.335000000000000,0.000182000000000,0.000767000000000,0.660000000000000,0.854000000000000,
275000.000000000000000,-0.000136000000000,-0.000113000000000,-0.000089800000000,-0.000000035200000,0.000000026000000,0.000086100000000,0.000154000000000,-0.000023700000000,-0.000202000000000,0.332000000000000,0.000781000000000,-0.335000000000000,0.000181000000000,0.000767000000000,0.660000000000000,0.854000000000000,
275000.000000000000000,-0.000136000000000,-0.000113000000000,-0.000089900000000,-0.000000035200000,0.000000026200000,0.000086100000000,0.000154000000000,-0.000023800000000,-0.000202000000000,0.332000000000000,0.000781000000000,-0.336000000000000,0.000182000000000,0.000767000000000,0.661000000000000,0.855000000000000,
275000.000000000000000,-0.000136000000000,-0.000113000000000,-0.000089900000000,-0.000000035300000,0.000000028300000,0.000086100000000,0.000154000000000,-0.000023800000000,-0.000202000000000,0.332000000000000,0.000781000000000,-0.336000000000000,0.000185000000000,0.000768000000000,0.661000000000000,0.855000000000000,
275000.000000000000000,-0.000136000000000,-0.000113000000000,-0.000089900000000,-0.000000035000000,0.000000025000000,0.000086100000000,0.000154000000000,-0.000023800000000,-0.000202000000000,0.332000000000000,0.000781000000000,-0.336000000000000,0.000184000000000,0.000768000000000,0.661000000000000,0.855000000000000,
275000.000000000000000,-0.000136000000000,-0.000113000000000,-0.000090000000000,-0.000000034400000,0.000000017300000,0.000086100000000,0.000154000000000,-0.000023900000000,-0.000202000000000,0.333000000000000,0.000782000000000,-0.336000000000000,0.000180000000000,0.000767000000000,0.661000000000000,0.855000000000000,
275000.000000000000000,-0.000136000000000,-0.000113000000000,-0.000090000000000,-0.000000034200000,0.000000011300000,0.000086100000000,0.000154000000000,-0.000023900000000,-0.000202000000000,0.333000000000000,0.000782000000000,-0.336000000000000,0.000177000000000,0.000767000000000,0.661000000000000,0.856000000000000,
275000.000000000000000,-0.000136000000000,-0.000113000000000,-0.000090000000000,-0.000000034600000,0.000000012900000,0.000086200000000,0.000154000000000,-0.000023900000000,-0.000202000000000,0.333000000000000,0.000782000000000,-0.337000000000000,0.000178000000000,0.000768000000000,0.661000000000000,0.856000000000000,
275000.000000000000000,-0.000136000000000,-0.000113000000000,-0.000090000000000,-0.000000034900000,0.000000016700000,0.000086200000000,0.000155000000000,-0.000023900000000,-0.000202000000000,0.333000000000000,0.000782000000000,-0.337000000000000,0.000180000000000,0.000768000000000,0.661000000000000,0.856000000000000,
275000.000000000000000,-0.000136000000000,-0.000113000000000,-0.000090000000000,-0.000000034700000,0.000000016900000,0.000086200000000,0.000155000000000,-0.000023900000000,-0.000202000000000,0.334000000000000,0.000782000000000,-0.337000000000000,0.000179000000000,0.000768000000000,0.662000000000000,0.856000000000000,
276000.000000000000000,-0.000136000000000,-0.000113000000000,-0.000090000000000,-0.000000034500000,0.000000015600000,0.000086200000000,0.000155000000000,-0.000023900000000,-0.000202000000000,0.334000000000000,0.000782000000000,-0.337000000000000,0.000178000000000,0.000767000000000,0.662000000000000,0.857000000000000,
276000.000000000000000,-0.000136000000000,-0.000113000000000,-0.000090000000000,-0.000000034600000,0.000000017800000,0.000086200000000,0.000155000000000,-0.000023900000000,-0.000202000000000,0.334000000000000,0.000783000000000,-0.338000000000000,0.000178000000000,0.000767000000000,0.662000000000000,0.857000000000000,
276000.000000000000000,-0.000136000000000,-0.000113000000000,-0.000090000000000,-0.000000034800000,0.000000024100000,0.000086200000000,0.000155000000000,-0.000023900000000,-0.000202000000000,0.334000000000000,0.000783000000000,-0.338000000000000,0.000182000000000,0.000767000000000,0.662000000000000,0.857000000000000,
276000.000000000000000,-0.000136000000000,-0.000113000000000,-0.000090000000000,-0.000000034800000,0.000000027600000,0.000086200000000,0.000155000000000,-0.000023900000000,-0.000203000000000,0.335000000000000,0.000783000000000,-0.338000000000000,0.000185000000000,0.000766000000000,0.662000000000000,0.858000000000000,
276000.000000000000000,-0.000137000000000,-0.000113000000000,-0.000090100000000,-0.000000034300000,0.000000023800000,0.000086200000000,0.000155000000000,-0.000024000000000,-0.000203000000000,0.335000000000000,0.000783000000000,-0.338000000000000,0.000184000000000,0.000765000000000,0.662000000000000,0.858000000000000,
276000.000000000000000,-0.000137000000000,-0.000113000000000,-0.000090200000000,-0.000000034100000,0.000000019300000,0.000086200000000,0.000155000000000,-0.000024100000000,-0.000203000000000,0.335000000000000,0.000784000000000,-0.339000000000000,0.000182000000000,0.000764000000000,0.662000000000000,0.858000000000000,
276000.000000000000000,-0.000137000000000,-0.000113000000000,-0.000090200000000,-0.000000034400000,0.000000018100000,0.000086300000000,0.000155000000000,-0.000024100000000,-0.000203000000000,0.335000000000000,0.000784000000000,-0.339000000000000,0.000182000000000,0.000765000000000,0.663000000000000,0.858000000000000,
276000.000000000000000,-0.000137000000000,-0.000113000000000,-0.000090200000000,-0.000000034900000,0.000000020400000,0.000086300000000,0.000155000000000,-0.000024100000000,-0.000203000000000,0.336000000000000,0.000784000000000,-0.339000000000000,0.000183000000000,0.000766000000000,0.663000000000000,0.859000000000000,
276000.000000000000000,-0.000137000000000,-0.000113000000000,-0.000090200000000,-0.000000034800000,0.000000019700000,0.000086300000000,0.000155000000000,-0.000024100000000,-0.000203000000000,0.336000000000000,0.000785000000000,-0.340000000000000,0.000184000000000,0.000767000000000,0.663000000000000,0.859000000000000,
276000.000000000000000,-0.000137000000000,-0.000113000000000,-0.000090200000000,-0.000000034700000,0.000000015800000,0.000086300000000,0.000155000000000,-0.000024100000000,-0.000203000000000,0.336000000000000,0.000785000000000,-0.340000000000000,0.000181000000000,0.000767000000000,0.663000000000000,0.859000000000000,
277000.000000000000000,-0.000137000000000,-0.000113000000000,-0.000090200000000,-0.000000034500000,0.000000013700000,0.000086300000000,0.000155000000000,-0.000024000000000,-0.000203000000000,0.337000000000000,0.000785000000000,-0.340000000000000,0.000180000000000,0.000768000000000,0.663000000000000,0.860000000000000,
277000.000000000000000,-0.000137000000000,-0.000113000000000,-0.000090100000000,-0.000000034500000,0.000000016300000,0.000086300000000,0.000155000000000,-0.000024000000000,-0.000203000000000,0.337000000000000,0.000785000000000,-0.340000000000000,0.000181000000000,0.000769000000000,0.663000000000000,0.860000000000000,
277000.000000000000000,-0.000137000000000,-0.000113000000000,-0.000090100000000,-0.000000033900000,0.000000016800000,0.000086400000000,0.000155000000000,-0.000024000000000,-0.000203000000000,0.337000000000000,0.000785000000000,-0.341000000000000,0.000183000000000,0.000768000000000,0.663000000000000,0.860000000000000,
277000.000000000000000,-0.000137000000000,-0.000113000000000,-0.000090200000000,-0.000000033300000,0.000000015600000,0.000086400000000,0.000155000000000,-0.000024100000000,-0.000203000000000,0.337000000000000,0.000785000000000,-0.341000000000000,0.000183000000000,0.000767000000000,0.664000000000000,0.861000000000000,
277000.000000000000000,-0.000137000000000,-0.000113000000000,-0.000090200000000,-0.000000032900000,0.000000012300000,0.000086400000000,0.000155000000000,-0.000024100000000,-0.000203000000000,0.338000000000000,0.000785000000000,-0.341000000000000,0.000182000000000,0.000766000000000,0.664000000000000,0.861000000000000,
277000.000000000000000,-0.000137000000000,-0.000113000000000,-0.000090200000000,-0.000000033000000,0.000000012200000,0.000086400000000,0.000155000000000,-0.000024000000000,-0.000203000000000,0.338000000000000,0.000785000000000,-0.342000000000000,0.000182000000000,0.000765000000000,0.664000000000000,0.861000000000000,
277000.000000000000000,-0.000137000000000,-0.000113000000000,-0.000090200000000,-0.000000033200000,0.000000015200000,0.000086400000000,0.000155000000000,-0.000024100000000,-0.000203000000000,0.338000000000000,0.000786000000000,-0.342000000000000,0.000184000000000,0.000764000000000,0.664000000000000,0.862000000000000,
277000.000000000000000,-0.000137000000000,-0.000114000000000,-0.000090300000000,-0.000000033100000,0.000000017300000,0.000086400000000,0.000155000000000,-0.000024200000000,-0.000203000000000,0.339000000000000,0.000786000000000,-0.342000000000000,0.000186000000000,0.000763000000000,0.664000000000000,0.862000000000000,
277000.000000000000000,-0.000137000000000,-0.000114000000000,-0.000090400000000,-0.000000033300000,0.000000015500000,0.000086400000000,0.000155000000000,-0.000024300000000,-0.000203000000000,0.339000000000000,0.000786000000000,-0.342000000000000,0.000185000000000,0.000762000000000,0.664000000000000,0.862000000000000,
277000.000000000000000,-0.000137000000000,-0.000114000000000,-0.000090400000000,-0.000000033600000,0.000000013000000,0.000086500000000,0.000155000000000,-0.000024200000000,-0.000203000000000,0.339000000000000,0.000787000000000,-0.343000000000000,0.000183000000000,0.000763000000000,0.665000000000000,0.862000000000000,
278000.000000000000000,-0.000137000000000,-0.000114000000000,-0.000090300000000,-0.000000033700000,0.000000011800000,0.000086500000000,0.000155000000000,-0.000024200000000,-0.000203000000000,0.339000000000000,0.000787000000000,-0.343000000000000,0.000183000000000,0.000763000000000,0.665000000000000,0.863000000000000,
278000.000000000000000,-0.000137000000000,-0.000114000000000,-0.000090400000000,-0.000000033500000,0.000000012000000,0.000086500000000,0.000155000000000,-0.000024300000000,-0.000203000000000,0.340000000000000,0.000787000000000,-0.343000000000000,0.000183000000000,0.000763000000000,0.665000000000000,0.863000000000000,
278000.000000000000000,-0.000137000000000,-0.000114000000000,-0.000090500000000,-0.000000033800000,0.000000012700000,0.000086500000000,0.000155000000000,-0.000024400000000,-0.000204000000000,0.340000000000000,0.000787000000000,-0.344000000000000,0.000184000000000,0.000764000000000,0.665000000000000,0.863000000000000,
278000.000000000000000,-0.000137000000000,-0.000114000000000,-0.000090500000000,-0.000000034000000,0.000000008250000,0.000086500000000,0.000155000000000,-0.000024300000000,-0.000204000000000,0.340000000000000,0.000787000000000,-0.344000000000000,0.000181000000000,0.000764000000000,0.665000000000000,0.864000000000000,
278000.000000000000000,-0.000137000000000,-0.000114000000000,-0.000090400000000,-0.000000034000000,0.000000004740000,0.000086500000000,0.000155000000000,-0.000024200000000,-0.000204000000000,0.341000000000000,0.000787000000000,-0.344000000000000,0.000179000000000,0.000765000000000,0.665000000000000,0.864000000000000,
278000.000000000000000,-0.000137000000000,-0.000114000000000,-0.000090400000000,-0.000000033300000,0.000000004040000,0.000086500000000,0.000155000000000,-0.000024200000000,-0.000204000000000,0.341000000000000,0.000788000000000,-0.344000000000000,0.000180000000000,0.000765000000000,0.665000000000000,0.864000000000000,
278000.000000000000000,-0.000138000000000,-0.000114000000000,-0.000090500000000,-0.000000033000000,0.000000006740000,0.000086600000000,0.000155000000000,-0.000024300000000,-0.000204000000000,0.341000000000000,0.000788000000000,-0.345000000000000,0.000182000000000,0.000765000000000,0.666000000000000,0.865000000000000,
278000.000000000000000,-0.000138000000000,-0.000114000000000,-0.000090500000000,-0.000000034100000,0.000000012800000,0.000086600000000,0.000155000000000,-0.000024300000000,-0.000204000000000,0.342000000000000,0.000788000000000,-0.345000000000000,0.000185000000000,0.000767000000000,0.666000000000000,0.865000000000000,
278000.000000000000000,-0.000138000000000,-0.000114000000000,-0.000090400000000,-0.000000034800000,0.000000013600000,0.000086600000000,0.000155000000000,-0.000024200000000,-0.000204000000000,0.342000000000000,0.000788000000000,-0.345000000000000,0.000184000000000,0.000767000000000,0.666000000000000,0.865000000000000,
278000.000000000000000,-0.000138000000000,-0.000114000000000,-0.000090300000000,-0.000000034500000,0.000000015100000,0.000086600000000,0.000155000000000,-0.000024200000000,-0.000204000000000,0.342000000000000,0.000788000000000,-0.346000000000000,0.000185000000000,0.000766000000000,0.666000000000000,0.866000000000000,
279000.000000000000000,-0.000138000000000,-0.000114000000000,-0.000090500000000,-0.000000033800000,0.000000018100000,0.000086600000000,0.000155000000000,-0.000024300000000,-0.000204000000000,0.343000000000000,0.000789000000000,-0.346000000000000,0.000188000000000,0.000765000000000,0.666000000000000,0.866000000000000,
279000.000000000000000,-0.000138000000000,-0.000114000000000,-0.000090700000000,-0.000000034400000,0.000000024700000,0.000086600000000,0.000156000000000,-0.000024500000000,-0.000204000000000,0.343000000000000,0.000790000000000,-0.347000000000000,0.000191000000000,0.000766000000000,0.666000000000000,0.866000000000000,
279000.000000000000000,-0.000138000000000,-0.000114000000000,-0.000090500000000,-0.000000035700000,0.000000029200000,0.000086700000000,0.000156000000000,-0.000024300000000,-0.000204000000000,0.343000000000000,0.000790000000000,-0.347000000000000,0.000192000000000,0.000767000000000,0.667000000000000,0.867000000000000,
279000.000000000000000,-0.000138000000000,-0.000114000000000,-0.000090400000000,-0.000000036000000,0.000000025000000,0.000086700000000,0.000156000000000,-0.000024200000000,-0.000204000000000,0.344000000000000,0.000790000000000,-0.347000000000000,0.000188000000000,0.000766000000000,0.667000000000000,0.867000000000000,
279000.000000000000000,-0.000138000000000,-0.000114000000000,-0.000090500000000,-0.000000034800000,0.000000019400000,0.000086700000000,0.000156000000000,-0.000024300000000,-0.000204000000000,0.344000000000000,0.000790000000000,-0.348000000000000,0.000186000000000,0.000764000000000,0.667000000000000,0.867000000000000,
279000.000000000000000,-0.000138000000000,-0.000114000000000,-0.000090800000000,-0.000000034400000,0.000000017800000,0.000086700000000,0.000156000000000,-0.000024600000000,-0.000204000000000,0.344000000000000,0.000790000000000,-0.348000000000000,0.000186000000000,0.000763000000000,0.667000000000000,0.868000000000000,
279000.000000000000000,-0.000138000000000,-0.000114000000000,-0.000090800000000,-0.000000035600000,0.000000019300000,0.000086700000000,0.000156000000000,-0.000024600000000,-0.000204000000000,0.345000000000000,0.000791000000000,-0.349000000000000,0.000186000000000,0.000765000000000,0.667000000000000,0.868000000000000,
279000.000000000000000,-0.000138000000000,-0.000114000000000,-0.000090600000000,-0.000000036400000,0.000000016100000,0.000086800000000,0.000156000000000,-0.000024400000000,-0.000204000000000,0.345000000000000,0.000792000000000,-0.349000000000000,0.000184000000000,0.000766000000000,0.667000000000000,0.869000000000000,
279000.000000000000000,-0.000138000000000,-0.000114000000000,-0.000090700000000,-0.000000036100000,0.000000009310000,0.000086800000000,0.000156000000000,-0.000024400000000,-0.000204000000000,0.346000000000000,0.000792000000000,-0.349000000000000,0.000180000000000,0.000766000000000,0.667000000000000,0.869000000000000,
279000.000000000000000,-0.000138000000000,-0.000114000000000,-0.000090700000000,-0.000000035500000,0.000000006460000,0.000086800000000,0.000156000000000,-0.000024500000000,-0.000204000000000,0.346000000000000,0.000792000000000,-0.350000000000000,0.000179000000000,0.000766000000000,0.668000000000000,0.869000000000000,
280000.000000000000000,-0.000138000000000,-0.000114000000000,-0.000090900000000,-0.000000036100000,0.000000013500000,0.000086800000000,0.000156000000000,-0.000024700000000,-0.000205000000000,0.347000000000000,0.000792000000000,-0.350000000000000,0.000183000000000,0.000768000000000,0.668000000000000,0.870000000000000,
280000.000000000000000,-0.000138000000000,-0.000114000000000,-0.000090800000000,-0.000000037800000,0.000000022000000,0.000086800000000,0.000156000000000,-0.000024600000000,-0.000205000000000,0.347000000000000,0.000793000000000,-0.351000000000000,0.000186000000000,0.000771000000000,0.668000000000000,0.870000000000000,
280000.000000000000000,-0.000138000000000,-0.000114000000000,-0.000090600000000,-0.000000038300000,0.000000024900000,0.000086900000000,0.000156000000000,-0.000024400000000,-0.000205000000000,0.347000000000000,0.000793000000000,-0.351000000000000,0.000187000000000,0.000771000000000,0.668000000000000,0.870000000000000,
280000.000000000000000,-0.000138000000000,-0.000114000000000,-0.000090700000000,-0.000000037300000,0.000000024500000,0.000086900000000,0.000156000000000,-0.000024400000000,-0.000205000000000,0.348000000000000,0.000793000000000,-0.351000000000000,0.000188000000000,0.000770000000000,0.668000000000000,0.871000000000000,
280000.000000000000000,-0.000138000000000,-0.000114000000000,-0.000090800000000,-0.000000036500000,0.000000027000000,0.000086900000000,0.000156000000000,-0.000024500000000,-0.000205000000000,0.348000000000000,0.000793000000000,-0.352000000000000,0.000191000000000,0.000768000000000,0.668000000000000,0.871000000000000,
280000.000000000000000,-0.000139000000000,-0.000115000000000,-0.000091000000000,-0.000000036800000,0.000000031900000,0.000086900000000,0.000156000000000,-0.000024700000000,-0.000205000000000,0.348000000000000,0.000794000000000,-0.352000000000000,0.000194000000000,0.000768000000000,0.669000000000000,0.872000000000000,
280000.000000000000000,-0.000139000000000,-0.000115000000000,-0.000090900000000,-0.000000037400000,0.000000032600000,0.000086900000000,0.000156000000000,-0.000024600000000,-0.000205000000000,0.349000000000000,0.000794000000000,-0.352000000000000,0.000194000000000,0.000768000000000,0.669000000000000,0.872000000000000,
280000.000000000000000,-0.000139000000000,-0.000115000000000,-0.000090900000000,-0.000000037500000,0.000000027700000,0.000086900000000,0.000156000000000,-0.000024600000000,-0.000205000000000,0.349000000000000,0.000794000000000,-0.353000000000000,0.000191000000000,0.000767000000000,0.669000000000000,0.872000000000000,
280000.000000000000000,-0.000139000000000,-0.000115000000000,-0.000090900000000,-0.000000037200000,0.000000023400000,0.000087000000000,0.000156000000000,-0.000024600000000,-0.000205000000000,0.349000000000000,0.000794000000000,-0.353000000000000,0.000189000000000,0.000765000000000,0.669000000000000,0.873000000000000,
280000.000000000000000,-0.000139000000000,-0.000115000000000,-0.000091000000000,-0.000000037000000,0.000000022100000,0.000087000000000,0.000156000000000,-0.000024700000000,-0.000205000000000,0.350000000000000,0.000795000000000,-0.353000000000000,0.000188000000000,0.000765000000000,0.669000000000000,0.873000000000000,
281000.000000000000000,-0.000139000000000,-0.000115000000000,-0.000091100000000,-0.000000037500000,0.000000022100000,0.000087000000000,0.000156000000000,-0.000024800000000,-0.000205000000000,0.350000000000000,0.000795000000000,-0.354000000000000,0.000188000000000,0.000765000000000,0.669000000000000,0.873000000000000,
281000.000000000000000,-0.000139000000000,-0.000115000000000,-0.000091000000000,-0.000000037900000,0.000000019300000,0.000087000000000,0.000156000000000,-0.000024700000000,-0.000205000000000,0.350000000000000,0.000795000000000,-0.354000000000000,0.000186000000000,0.000766000000000,0.670000000000000,0.874000000000000,
281000.000000000000000,-0.000139000000000,-0.000115000000000,-0.000090900000000,-0.000000037600000,0.000000014800000,0.000087000000000,0.000156000000000,-0.000024600000000,-0.000205000000000,0.351000000000000,0.000795000000000,-0.354000000000000,0.000183000000000,0.000767000000000,0.670000000000000,0.874000000000000,
281000.000000000000000,-0.000139000000000,-0.000115000000000,-0.000090900000000,-0.000000036900000,0.000000011500000,0.000087000000000,0.000156000000000,-0.000024600000000,-0.000205000000000,0.351000000000000,0.000795000000000,-0.355000000000000,0.000183000000000,0.000766000000000,0.670000000000000,0.874000000000000,
281000.000000000000000,-0.000139000000000,-0.000115000000000,-0.000091000000000,-0.000000036600000,0.000000014400000,0.000087100000000,0.000156000000000,-0.000024700000000,-0.000205000000000,0.351000000000000,0.000795000000000,-0.355000000000000,0.000186000000000,0.000767000000000,0.670000000000000,0.875000000000000,
281000.000000000000000,-0.000139000000000,-0.000115000000000,-0.000091000000000,-0.000000036900000,0.000000017800000,0.000087100000000,0.000156000000000,-0.000024700000000,-0.000205000000000,0.352000000000000,0.000795000000000,-0.355000000000000,0.000188000000000,0.000769000000000,0.670000000000000,0.875000000000000,
281000.000000000000000,-0.000139000000000,-0.000115000000000,-0.000090900000000,-0.000000037000000,0.000000018500000,0.000087100000000,0.000156000000000,-0.000024600000000,-0.000205000000000,0.352000000000000,0.000796000000000,-0.356000000000000,0.000189000000000,0.000769000000000,0.670000000000000,0.875000000000000,
281000.000000000000000,-0.000139000000000,-0.000115000000000,-0.000091000000000,-0.000000037000000,0.000000019900000,0.000087100000000,0.000157000000000,-0.000024600000000,-0.000205000000000,0.352000000000000,0.000796000000000,-0.356000000000000,0.000190000000000,0.000769000000000,0.670000000000000,0.875000000000000,
281000.000000000000000,-0.000139000000000,-0.000115000000000,-0.000091000000000,-0.000000036600000,0.000000022500000,0.000087100000000,0.000157000000000,-0.000024600000000,-0.000205000000000,0.353000000000000,0.000796000000000,-0.356000000000000,0.000193000000000,0.000768000000000,0.671000000000000,0.876000000000000,
281000.000000000000000,-0.000139000000000,-0.000115000000000,-0.000091100000000,-0.000000036600000,0.000000028200000,0.000087100000000,0.000157000000000,-0.000024800000000,-0.000206000000000,0.353000000000000,0.000796000000000,-0.357000000000000,0.000197000000000,0.000768000000000,0.671000000000000,0.876000000000000,
282000.000000000000000,-0.000139000000000,-0.000115000000000,-0.000091100000000,-0.000000036800000,0.000000030000000,0.000087200000000,0.000157000000000,-0.000024700000000,-0.000206000000000,0.353000000000000,0.000797000000000,-0.357000000000000,0.000197000000000,0.000768000000000,0.671000000000000,0.876000000000000,
282000.000000000000000,-0.000139000000000,-0.000115000000000,-0.000091000000000,-0.000000036600000,0.000000027200000,0.000087200000000,0.000157000000000,-0.000024700000000,-0.000206000000000,0.353000000000000,0.000797000000000,-0.357000000000000,0.000195000000000,0.000767000000000,0.671000000000000,0.877000000000000,
282000.000000000000000,-0.000139000000000,-0.000115000000000,-0.000091100000000,-0.000000036500000,0.000000024400000,0.000087200000000,0.000157000000000,-0.000024700000000,-0.000206000000000,0.354000000000000,0.000797000000000,-0.357000000000000,0.000193000000000,0.000765000000000,0.671000000000000,0.877000000000000,
282000.000000000000000,-0.000139000000000,-0.000115000000000,-0.000091100000000,-0.000000036000000,0.000000022700000,0.000087200000000,0.000157000000000,-0.000024700000000,-0.000206000000000,0.354000000000000,0.000797000000000,-0.358000000000000,0.000193000000000,0.000764000000000,0.671000000000000,0.877000000000000,
282000.000000000000000,-0.000139000000000,-0.000115000000000,-0.000091200000000,-0.000000035800000,0.000000021900000,0.000087200000000,0.000157000000000,-0.000024800000000,-0.000206000000000,0.354000000000000,0.000797000000000,-0.358000000000000,0.000192000000000,0.000764000000000,0.671000000000000,0.877000000000000,
282000.000000000000000,-0.000139000000000,-0.000115000000000,-0.000091100000000,-0.000000035600000,0.000000017600000,0.000087200000000,0.000157000000000,-0.000024800000000,-0.000206000000000,0.355000000000000,0.000797000000000,-0.358000000000000,0.000190000000000,0.000764000000000,0.671000000000000,0.878000000000000,
282000.000000000000000,-0.000139000000000,-0.000115000000000,-0.000091100000000,-0.000000035300000,0.000000011200000,0.000087200000000,0.000157000000000,-0.000024800000000,-0.000206000000000,0.355000000000000,0.000798000000000,-0.358000000000000,0.000186000000000,0.000763000000000,0.672000000000000,0.878000000000000,
282000.000000000000000,-0.000140000000000,-0.000115000000000,-0.000091200000000,-0.000000035100000,0.000000008050000,0.000087200000000,0.000157000000000,-0.000024800000000,-0.000206000000000,0.355000000000000,0.000798000000000,-0.359000000000000,0.000185000000000,0.000763000000000,0.672000000000000,0.878000000000000,
282000.000000000000000,-0.000140000000000,-0.000115000000000,-0.000091200000000,-0.000000035200000,0.000000009530000,0.000087300000000,0.000157000000000,-0.000024800000000,-0.000206000000000,0.355000000000000,0.000798000000000,-0.359000000000000,0.000187000000000,0.000764000000000,0.672000000000000,0.879000000000000,
282000.000000000000000,-0.000140000000000,-0.000115000000000,-0.000091300000000,-0.000000035500000,0.000000012200000,0.000087300000000,0.000157000000000,-0.000025000000000,-0.000206000000000,0.356000000000000,0.000798000000000,-0.359000000000000,0.000189000000000,0.000765000000000,0.672000000000000,0.879000000000000,
283000.000000000000000,-0.000140000000000,-0.000115000000000,-0.000091300000000,-0.000000035900000,0.000000012800000,0.000087300000000,0.000157000000000,-0.000024900000000,-0.000206000000000,0.356000000000000,0.000799000000000,-0.359000000000000,0.000189000000000,0.000765000000000,0.672000000000000,0.879000000000000,
283000.000000000000000,-0.000140000000000,-0.000115000000000,-0.000091300000000,-0.000000036200000,0.000000012800000,0.000087300000000,0.000157000000000,-0.000024900000000,-0.000206000000000,0.356000000000000,0.000799000000000,-0.360000000000000,0.000190000000000,0.000766000000000,0.672000000000000,0.879000000000000,
283000.000000000000000,-0.000140000000000,-0.000115000000000,-0.000091300000000,-0.000000036400000,0.000000016000000,0.000087300000000,0.000157000000000,-0.000024900000000,-0.000206000000000,0.356000000000000,0.000799000000000,-0.360000000000000,0.000192000000000,0.000767000000000,0.672000000000000,0.880000000000000,
283000.000000000000000,-0.000140000000000,-0.000115000000000,-0.000091400000000,-0.000000036800000,0.000000021300000,0.000087300000000,0.000157000000000,-0.000025000000000,-0.000206000000000,0.357000000000000,0.000800000000000,-0.360000000000000,0.000195000000000,0.000768000000000,0.672000000000000,0.880000000000000,
283000.000000000000000,-0.000140000000000,-0.000116000000000,-0.000091400000000,-0.000000037200000,0.000000024600000,0.000087300000000,0.000157000000000,-0.000025000000000,-0.000206000000000,0.357000000000000,0.000800000000000,-0.360000000000000,0.000197000000000,0.000768000000000,0.673000000000000,0.880000000000000,
283000.000000000000000,-0.000140000000000,-0.000115000000000,-0.000091300000000,-0.000000037300000,0.000000023700000,0.000087400000000,0.000157000000000,-0.000025000000000,-0.000206000000000,0.357000000000000,0.000800000000000,-0.361000000000000,0.000195000000000,0.000768000000000,0.673000000000000,0.880000000000000,
283000.000000000000000,-0.000140000000000,-0.000116000000000,-0.000091400000000,-0.000000037200000,0.000000021700000,0.000087400000000,0.000157000000000,-0.000025000000000,-0.000206000000000,0.357000000000000,0.000800000000000,-0.361000000000000,0.000193000000000,0.000768000000000,0.673000000000000,0.881000000000000,
283000.000000000000000,-0.000140000000000,-0.000115000000000,-0.000091300000000,-0.000000037000000,0.000000022000000,0.000087400000000,0.000157000000000,-0.000024900000000,-0.000206000000000,0.358000000000000,0.000800000000000,-0.361000000000000,0.000193000000000,0.000767000000000,0.673000000000000,0.881000000000000,
283000.000000000000000,-0.000140000000000,-0.000116000000000,-0.000091400000000,-0.000000036800000,0.000000023400000,0.000087400000000,0.000157000000000,-0.000025000000000,-0.000206000000000,0.358000000000000,0.000800000000000,-0.361000000000000,0.000194000000000,0.000767000000000,0.673000000000000,0.881000000000000,
283000.000000000000000,-0.000140000000000,-0.000116000000000,-0.000091400000000,-0.000000036600000,0.000000021700000,0.000087400000000,0.000157000000000,-0.000025000000000,-0.000206000000000,0.358000000000000,0.000801000000000,-0.362000000000000,0.000193000000000,0.000766000000000,0.673000000000000,0.881000000000000,
284000.000000000000000,-0.000140000000000,-0.000116000000000,-0.000091300000000,-0.000000036200000,0.000000017700000,0.000087400000000,0.000157000000000,-0.000025000000000,-0.000206000000000,0.358000000000000,0.000801000000000,-0.362000000000000,0.000190000000000,0.000766000000000,0.673000000000000,0.882000000000000,
284000.000000000000000,-0.000140000000000,-0.000116000000000,-0.000091400000000,-0.000000036100000,0.000000015800000,0.000087400000000,0.000157000000000,-0.000025000000000,-0.000207000000000,0.359000000000000,0.000801000000000,-0.362000000000000,0.000189000000000,0.000765000000000,0.673000000000000,0.882000000000000,
284000.000000000000000,-0.000140000000000,-0.000116000000000,-0.000091400000000,-0.000000036000000,0.000000017000000,0.000087400000000,0.000157000000000,-0.000025000000000,-0.000207000000000,0.359000000000000,0.000801000000000,-0.362000000000000,0.000190000000000,0.000765000000000,0.674000000000000,0.882000000000000,
284000.000000000000000,-0.000140000000000,-0.000116000000000,-0.000091500000000,-0.000000036100000,0.000000019500000,0.000087400000000,0.000157000000000,-0.000025100000000,-0.000207000000000,0.359000000000000,0.000802000000000,-0.363000000000000,0.000192000000000,0.000765000000000,0.674000000000000,0.883000000000000,
284000.000000000000000,-0.000140000000000,-0.000116000000000,-0.000091500000000,-0.000000036300000,0.000000018600000,0.000087500000000,0.000157000000000,-0.000025100000000,-0.000207000000000,0.359000000000000,0.000802000000000,-0.363000000000000,0.000192000000000,0.000765000000000,0.674000000000000,0.883000000000000,
284000.000000000000000,-0.000140000000000,-0.000116000000000,-0.000091500000000,-0.000000036400000,0.000000016700000,0.000087500000000,0.000157000000000,-0.000025100000000,-0.000207000000000,0.360000000000000,0.000802000000000,-0.363000000000000,0.000192000000000,0.000766000000000,0.674000000000000,0.883000000000000,
284000.000000000000000,-0.000141000000000,-0.000116000000000,-0.000091600000000,-0.000000036600000,0.000000017900000,0.000087500000000,0.000157000000000,-0.000025200000000,-0.000207000000000,0.360000000000000,0.000803000000000,-0.363000000000000,0.000193000000000,0.000766000000000,0.674000000000000,0.883000000000000,
284000.000000000000000,-0.000141000000000,-0.000116000000000,-0.000091600000000,-0.000000037000000,0.000000021600000,0.000087500000000,0.000157000000000,-0.000025200000000,-0.000207000000000,0.360000000000000,0.000803000000000,-0.364000000000000,0.000196000000000,0.000767000000000,0.674000000000000,0.884000000000000,
284000.000000000000000,-0.000141000000000,-0.000116000000000,-0.000091700000000,-0.000000037100000,0.000000023400000,0.000087500000000,0.000157000000000,-0.000025300000000,-0.000207000000000,0.360000000000000,0.000803000000000,-0.364000000000000,0.000197000000000,0.000768000000000,0.674000000000000,0.884000000000000,
284000.000000000000000,-0.000141000000000,-0.000116000000000,-0.000091600000000,-0.000000037000000,0.000000021800000,0.000087500000000,0.000157000000000,-0.000025200000000,-0.000207000000000,0.361000000000000,0.000803000000000,-0.364000000000000,0.000196000000000,0.000769000000000,0.675000000000000,0.884000000000000,
285000.000000000000000,-0.000141000000000,-0.000116000000000,-0.000091600000000,-0.000000036600000,0.000000018700000,0.000087500000000,0.000157000000000,-0.000025200000000,-0.000207000000000,0.361000000000000,0.000803000000000,-0.365000000000000,0.000194000000000,0.000769000000000,0.675000000000000,0.884000000000000,
285000.000000000000000,-0.000141000000000,-0.000116000000000,-0.000091600000000,-0.000000036300000,0.000000019200000,0.000087600000000,0.000158000000000,-0.000025200000000,-0.000207000000000,0.361000000000000,0.000803000000000,-0.365000000000000,0.000195000000000,0.000769000000000,0.675000000000000,0.885000000000000,
285000.000000000000000,-0.000141000000000,-0.000116000000000,-0.000091600000000,-0.000000036100000,0.000000020600000,0.000087600000000,0.000158000000000,-0.000025200000000,-0.000207000000000,0.361000000000000,0.000803000000000,-0.365000000000000,0.000196000000000,0.000768000000000,0.675000000000000,0.885000000000000,
285000.000000000000000,-0.000141000000000,-0.000116000000000,-0.000091700000000,-0.000000035600000,0.000000018000000,0.000087600000000,0.000158000000000,-0.000025300000000,-0.000207000000000,0.362000000000000,0.000804000000000,-0.365000000000000,0.000195000000000,0.000767000000000,0.675000000000000,0.885000000000000,
285000.000000000000000,-0.000141000000000,-0.000116000000000,-0.000091600000000,-0.000000035200000,0.000000013400000,0.000087600000000,0.000158000000000,-0.000025200000000,-0.000207000000000,0.362000000000000,0.000804000000000,-0.366000000000000,0.000192000000000,0.000766000000000,0.675000000000000,0.886000000000000,
285000.000000000000000,-0.000141000000000,-0.000116000000000,-0.000091700000000,-0.000000035000000,0.000000011100000,0.000087600000000,0.000158000000000,-0.000025300000000,-0.000207000000000,0.362000000000000,0.000804000000000,-0.366000000000000,0.000191000000000,0.000764000000000,0.675000000000000,0.886000000000000,
285000.000000000000000,-0.000141000000000,-0.000116000000000,-0.000091700000000,-0.000000035500000,0.000000013600000,0.000087600000000,0.000158000000000,-0.000025300000000,-0.000207000000000,0.363000000000000,0.000804000000000,-0.366000000000000,0.000193000000000,0.000764000000000,0.675000000000000,0.886000000000000,
285000.000000000000000,-0.000141000000000,-0.000116000000000,-0.000091800000000,-0.000000036000000,0.000000017200000,0.000087600000000,0.000158000000000,-0.000025400000000,-0.000207000000000,0.363000000000000,0.000805000000000,-0.366000000000000,0.000195000000000,0.000764000000000,0.676000000000000,0.886000000000000,
285000.000000000000000,-0.000141000000000,-0.000116000000000,-0.000091800000000,-0.000000036300000,0.000000018700000,0.000087700000000,0.000158000000000,-0.000025400000000,-0.000208000000000,0.363000000000000,0.000805000000000,-0.367000000000000,0.000195000000000,0.000764000000000,0.676000000000000,0.887000000000000,
285000.000000000000000,-0.000141000000000,-0.000116000000000,-0.000091800000000,-0.000000036600000,0.000000018100000,0.000087700000000,0.000158000000000,-0.000025400000000,-0.000208000000000,0.363000000000000,0.000805000000000,-0.367000000000000,0.000194000000000,0.000765000000000,0.676000000000000,0.887000000000000,
286000.000000000000000,-0.000141000000000,-0.000116000000000,-0.000091800000000,-0.000000036800000,0.000000019900000,0.000087700000000,0.000158000000000,-0.000025400000000,-0.000208000000000,0.364000000000000,0.000805000000000,-0.367000000000000,0.000195000000000,0.000766000000000,0.676000000000000,0.887000000000000,
286000.000000000000000,-0.000141000000000,-0.000116000000000,-0.000091800000000,-0.000000037000000,0.000000023700000,0.000087700000000,0.000158000000000,-0.000025400000000,-0.000208000000000,0.364000000000000,0.000806000000000,-0.368000000000000,0.000197000000000,0.000767000000000,0.676000000000000,0.888000000000000,
286000.000000000000000,-0.000141000000000,-0.000116000000000,-0.000091800000000,-0.000000036700000,0.000000024900000,0.000087700000000,0.000158000000000,-0.000025400000000,-0.000208000000000,0.364000000000000,0.000806000000000,-0.368000000000000,0.000199000000000,0.000768000000000,0.676000000000000,0.888000000000000,
286000.000000000000000,-0.000141000000000,-0.000116000000000,-0.000091800000000,-0.000000036100000,0.000000021400000,0.000087700000000,0.000158000000000,-0.000025400000000,-0.000208000000000,0.365000000000000,0.000806000000000,-0.368000000000000,0.000197000000000,0.000768000000000,0.676000000000000,0.888000000000000,
286000.000000000000000,-0.000141000000000,-0.000116000000000,-0.000091700000000,-0.000000035300000,0.000000015900000,0.000087800000000,0.000158000000000,-0.000025300000000,-0.000208000000000,0.365000000000000,0.000806000000000,-0.369000000000000,0.000195000000000,0.000768000000000,0.676000000000000,0.889000000000000,
286000.000000000000000,-0.000141000000000,-0.000116000000000,-0.000091800000000,-0.000000034900000,0.000000013000000,0.000087800000000,0.000158000000000,-0.000025400000000,-0.000208000000000,0.365000000000000,0.000806000000000,-0.369000000000000,0.000195000000000,0.000767000000000,0.677000000000000,0.889000000000000,
286000.000000000000000,-0.000141000000000,-0.000116000000000,-0.000091800000000,-0.000000034700000,0.000000012900000,0.000087800000000,0.000158000000000,-0.000025400000000,-0.000208000000000,0.366000000000000,0.000807000000000,-0.369000000000000,0.000196000000000,0.000766000000000,0.677000000000000,0.889000000000000,
286000.000000000000000,-0.000141000000000,-0.000117000000000,-0.000091900000000,-0.000000034700000,0.000000013200000,0.000087800000000,0.000158000000000,-0.000025500000000,-0.000208000000000,0.366000000000000,0.000807000000000,-0.370000000000000,0.000197000000000,0.000766000000000,0.677000000000000,0.890000000000000,
286000.000000000000000,-0.000142000000000,-0.000117000000000,-0.000092000000000,-0.000000035100000,0.000000011300000,0.000087800000000,0.000158000000000,-0.000025500000000,-0.000208000000000,0.366000000000000,0.000807000000000,-0.370000000000000,0.000195000000000,0.000766000000000,0.677000000000000,0.890000000000000,
286000.000000000000000,-0.000142000000000,-0.000117000000000,-0.000091900000000,-0.000000035300000,0.000000011200000,0.000087800000000,0.000158000000000,-0.000025500000000,-0.000208000000000,0.367000000000000,0.000808000000000,-0.370000000000000,0.000195000000000,0.000765000000000,0.677000000000000,0.890000000000000,
287000.000000000000000,-0.000142000000000,-0.000117000000000,-0.000092100000000,-0.000000036300000,0.000000016100000,0.000087800000000,0.000158000000000,-0.000025600000000,-0.000208000000000,0.367000000000000,0.000808000000000,-0.371000000000000,0.000196000000000,0.000765000000000,0.677000000000000,0.891000000000000,
287000.000000000000000,-0.000142000000000,-0.000117000000000,-0.000092000000000,-0.000000037100000,0.000000022000000,0.000087900000000,0.000158000000000,-0.000025600000000,-0.000208000000000,0.368000000000000,0.000809000000000,-0.371000000000000,0.000199000000000,0.000766000000000,0.677000000000000,0.891000000000000,
287000.000000000000000,-0.000142000000000,-0.000117000000000,-0.000092100000000,-0.000000037800000,0.000000027200000,0.000087900000000,0.000158000000000,-0.000025600000000,-0.000208000000000,0.368000000000000,0.000809000000000,-0.372000000000000,0.000200000000000,0.000767000000000,0.678000000000000,0.891000000000000,
287000.000000000000000,-0.000142000000000,-0.000117000000000,-0.000092100000000,-0.000000038000000,0.000000026900000,0.000087900000000,0.000158000000000,-0.000025600000000,-0.000208000000000,0.368000000000000,0.000809000000000,-0.372000000000000,0.000199000000000,0.000767000000000,0.678000000000000,0.892000000000000,
287000.000000000000000,-0.000142000000000,-0.000117000000000,-0.000092000000000,-0.000000037900000,0.000000026300000,0.000087900000000,0.000158000000000,-0.000025500000000,-0.000208000000000,0.369000000000000,0.000809000000000,-0.372000000000000,0.000198000000000,0.000767000000000,0.678000000000000,0.892000000000000,
287000.000000000000000,-0.000142000000000,-0.000117000000000,-0.000092100000000,-0.000000037700000,0.000000028000000,0.000087900000000,0.000158000000000,-0.000025600000000,-0.000208000000000,0.369000000000000,0.000809000000000,-0.373000000000000,0.000199000000000,0.000768000000000,0.678000000000000,0.892000000000000,
287000.000000000000000,-0.000142000000000,-0.000117000000000,-0.000092000000000,-0.000000037600000,0.000000028800000,0.000088000000000,0.000158000000000,-0.000025500000000,-0.000208000000000,0.369000000000000,0.000809000000000,-0.373000000000000,0.000200000000000,0.000769000000000,0.678000000000000,0.893000000000000,
287000.000000000000000,-0.000142000000000,-0.000117000000000,-0.000092100000000,-0.000000036800000,0.000000024500000,0.000088000000000,0.000158000000000,-0.000025600000000,-0.000208000000000,0.370000000000000,0.000809000000000,-0.373000000000000,0.000198000000000,0.000769000000000,0.678000000000000,0.893000000000000,
287000.000000000000000,-0.000142000000000,-0.000117000000000,-0.000092000000000,-0.000000036100000,0.000000018100000,0.000088000000000,0.000158000000000,-0.000025500000000,-0.000208000000000,0.370000000000000,0.000810000000000,-0.374000000000000,0.000196000000000,0.000768000000000,0.678000000000000,0.893000000000000,
287000.000000000000000,-0.000142000000000,-0.000117000000000,-0.000092000000000,-0.000000035900000,0.000000015500000,0.000088000000000,0.000158000000000,-0.000025500000000,-0.000209000000000,0.371000000000000,0.000810000000000,-0.374000000000000,0.000195000000000,0.000768000000000,0.679000000000000,0.894000000000000,
288000.000000000000000,-0.000142000000000,-0.000117000000000,-0.000092200000000,-0.000000035700000,0.000000016400000,0.000088000000000,0.000159000000000,-0.000025700000000,-0.000209000000000,0.371000000000000,0.000811000000000,-0.375000000000000,0.000197000000000,0.000768000000000,0.679000000000000,0.894000000000000,
288000.000000000000000,-0.000142000000000,-0.000117000000000,-0.000092100000000,-0.000000036200000,0.000000018200000,0.000088000000000,0.000159000000000,-0.000025600000000,-0.000209000000000,0.371000000000000,0.000811000000000,-0.375000000000000,0.000199000000000,0.000768000000000,0.679000000000000,0.894000000000000,
288000.000000000000000,-0.000142000000000,-0.000117000000000,-0.000092300000000,-0.000000036400000,0.000000017400000,0.000088100000000,0.000159000000000,-0.000025800000000,-0.000209000000000,0.372000000000000,0.000812000000000,-0.375000000000000,0.000198000000000,0.000768000000000,0.679000000000000,0.895000000000000,
288000.000000000000000,-0.000142000000000,-0.000117000000000,-0.000092300000000,-0.000000036800000,0.000000019200000,0.000088100000000,0.000159000000000,-0.000025700000000,-0.000209000000000,0.372000000000000,0.000812000000000,-0.376000000000000,0.000199000000000,0.000769000000000,0.679000000000000,0.895000000000000,
288000.000000000000000,-0.000142000000000,-0.000117000000000,-0.000092300000000,-0.000000037800000,0.000000023800000,0.000088100000000,0.000159000000000,-0.000025800000000,-0.000209000000000,0.372000000000000,0.000812000000000,-0.376000000000000,0.000200000000000,0.000769000000000,0.679000000000000,0.896000000000000,
288000.000000000000000,-0.000143000000000,-0.000117000000000,-0.000092400000000,-0.000000038500000,0.000000031000000,0.000088100000000,0.000159000000000,-0.000025900000000,-0.000209000000000,0.373000000000000,0.000813000000000,-0.377000000000000,0.000204000000000,0.000769000000000,0.679000000000000,0.896000000000000,
288000.000000000000000,-0.000143000000000,-0.000117000000000,-0.000092400000000,-0.000000039300000,0.000000035800000,0.000088100000000,0.000159000000000,-0.000025800000000,-0.000209000000000,0.373000000000000,0.000813000000000,-0.377000000000000,0.000205000000000,0.000770000000000,0.679000000000000,0.896000000000000,
288000.000000000000000,-0.000143000000000,-0.000117000000000,-0.000092400000000,-0.000000039500000,0.000000036100000,0.000088200000000,0.000159000000000,-0.000025900000000,-0.000209000000000,0.374000000000000,0.000813000000000,-0.377000000000000,0.000203000000000,0.000770000000000,0.680000000000000,0.897000000000000,
288000.000000000000000,-0.000143000000000,-0.000117000000000,-0.000092300000000,-0.000000039400000,0.000000035300000,0.000088200000000,0.000159000000000,-0.000025800000000,-0.000209000000000,0.374000000000000,0.000813000000000,-0.378000000000000,0.000202000000000,0.000770000000000,0.680000000000000,0.897000000000000,
288000.000000000000000,-0.000143000000000,-0.000117000000000,-0.000092400000000,-0.000000039200000,0.000000035300000,0.000088200000000,0.000159000000000,-0.000025800000000,-0.000209000000000,0.374000000000000,0.000813000000000,-0.378000000000000,0.000202000000000,0.000770000000000,0.680000000000000,0.897000000000000,
289000.000000000000000,-0.000143000000000,-0.000117000000000,-0.000092400000000,-0.000000039000000,0.000000036400000,0.000088200000000,0.000159000000000,-0.000025800000000,-0.000209000000000,0.375000000000000,0.000813000000000,-0.378000000000000,0.000202000000000,0.000770000000000,0.680000000000000,0.897000000000000,
289000.000000000000000,-0.000143000000000,-0.000117000000000,-0.000092300000000,-0.000000038400000,0.000000032400000,0.000088200000000,0.000159000000000,-0.000025700000000,-0.000209000000000,0.375000000000000,0.000813000000000,-0.379000000000000,0.000201000000000,0.000770000000000,0.680000000000000,0.898000000000000,
289000.000000000000000,-0.000143000000000,-0.000117000000000,-0.000092400000000,-0.000000037700000,0.000000025100000,0.000088200000000,0.000159000000000,-0.000025800000000,-0.000209000000000,0.375000000000000,0.000814000000000,-0.379000000000000,0.000198000000000,0.000770000000000,0.680000000000000,0.898000000000000,
289000.000000000000000,-0.000143000000000,-0.000117000000000,-0.000092300000000,-0.000000037000000,0.000000020500000,0.000088300000000,0.000159000000000,-0.000025700000000,-0.000209000000000,0.376000000000000,0.000814000000000,-0.379000000000000,0.000197000000000,0.000769000000000,0.680000000000000,0.898000000000000,
289000.000000000000000,-0.000143000000000,-0.000117000000000,-0.000092400000000,-0.000000036900000,0.000000020400000,0.000088300000000,0.000159000000000,-0.000025800000000,-0.000209000000000,0.376000000000000,0.000814000000000,-0.380000000000000,0.000198000000000,0.000770000000000,0.681000000000000,0.899000000000000,
289000.000000000000000,-0.000143000000000,-0.000118000000000,-0.000092500000000,-0.000000036900000,0.000000021300000,0.000088300000000,0.000159000000000,-0.000025900000000,-0.000210000000000,0.376000000000000,0.000815000000000,-0.380000000000000,0.000200000000000,0.000770000000000,0.681000000000000,0.899000000000000,
289000.000000000000000,-0.000143000000000,-0.000118000000000,-0.000092500000000,-0.000000036900000,0.000000020300000,0.000088300000000,0.000159000000000,-0.000025900000000,-0.000210000000000,0.376000000000000,0.000815000000000,-0.380000000000000,0.000201000000000,0.000770000000000,0.681000000000000,0.899000000000000,
289000.000000000000000,-0.000143000000000,-0.000118000000000,-0.000092600000000,-0.000000037300000,0.000000019700000,0.000088300000000,0.000159000000000,-0.000026000000000,-0.000210000000000,0.377000000000000,0.000815000000000,-0.380000000000000,0.000200000000000,0.000771000000000,0.681000000000000,0.900000000000000,
289000.000000000000000,-0.000143000000000,-0.000118000000000,-0.000092600000000,-0.000000037600000,0.000000022300000,0.000088300000000,0.000159000000000,-0.000026000000000,-0.000210000000000,0.377000000000000,0.000816000000000,-0.381000000000000,0.000202000000000,0.000771000000000,0.681000000000000,0.900000000000000,
289000.000000000000000,-0.000143000000000,-0.000118000000000,-0.000092700000000,-0.000000038500000,0.000000029100000,0.000088400000000,0.000159000000000,-0.000026100000000,-0.000210000000000,0.377000000000000,0.000816000000000,-0.381000000000000,0.000205000000000,0.000772000000000,0.681000000000000,0.900000000000000,
290000.000000000000000,-0.000143000000000,-0.000118000000000,-0.000092700000000,-0.000000039200000,0.000000034600000,0.000088400000000,0.000159000000000,-0.000026100000000,-0.000210000000000,0.378000000000000,0.000817000000000,-0.381000000000000,0.000207000000000,0.000772000000000,0.681000000000000,0.900000000000000,
290000.000000000000000,-0.000143000000000,-0.000118000000000,-0.000092600000000,-0.000000039400000,0.000000035900000,0.000088400000000,0.000159000000000,-0.000026000000000,-0.000210000000000,0.378000000000000,0.000817000000000,-0.382000000000000,0.000207000000000,0.000772000000000,0.681000000000000,0.901000000000000,
290000.000000000000000,-0.000143000000000,-0.000118000000000,-0.000092700000000,-0.000000039300000,0.000000034700000,0.000088400000000,0.000159000000000,-0.000026100000000,-0.000210000000000,0.378000000000000,0.000817000000000,-0.382000000000000,0.000205000000000,0.000771000000000,0.682000000000000,0.901000000000000,
290000.000000000000000,-0.000143000000000,-0.000118000000000,-0.000092600000000,-0.000000039200000,0.000000035200000,0.000088400000000,0.000159000000000,-0.000026000000000,-0.000210000000000,0.379000000000000,0.000817000000000,-0.382000000000000,0.000204000000000,0.000771000000000,0.682000000000000,0.901000000000000,
290000.000000000000000,-0.000143000000000,-0.000118000000000,-0.000092700000000,-0.000000039200000,0.000000037700000,0.000088400000000,0.000159000000000,-0.000026000000000,-0.000210000000000,0.379000000000000,0.000817000000000,-0.383000000000000,0.000205000000000,0.000771000000000,0.682000000000000,0.902000000000000,
290000.000000000000000,-0.000143000000000,-0.000118000000000,-0.000092600000000,-0.000000038800000,0.000000036100000,0.000088400000000,0.000159000000000,-0.000026000000000,-0.000210000000000,0.379000000000000,0.000817000000000,-0.383000000000000,0.000205000000000,0.000770000000000,0.682000000000000,0.902000000000000,
290000.000000000000000,-0.000143000000000,-0.000118000000000,-0.000092600000000,-0.000000037900000,0.000000029400000,0.000088500000000,0.000159000000000,-0.000026000000000,-0.000210000000000,0.379000000000000,0.000817000000000,-0.383000000000000,0.000202000000000,0.000769000000000,0.682000000000000,0.902000000000000,
290000.000000000000000,-0.000143000000000,-0.000118000000000,-0.000092700000000,-0.000000037300000,0.000000023700000,0.000088500000000,0.000159000000000,-0.000026000000000,-0.000210000000000,0.380000000000000,0.000817000000000,-0.383000000000000,0.000199000000000,0.000769000000000,0.682000000000000,0.902000000000000,
290000.000000000000000,-0.000144000000000,-0.000118000000000,-0.000092600000000,-0.000000037000000,0.000000021900000,0.000088500000000,0.000159000000000,-0.000026000000000,-0.000210000000000,0.380000000000000,0.000818000000000,-0.384000000000000,0.000200000000000,0.000769000000000,0.682000000000000,0.903000000000000,
290000.000000000000000,-0.000144000000000,-0.000118000000000,-0.000092700000000,-0.000000037000000,0.000000022900000,0.000088500000000,0.000159000000000,-0.000026100000000,-0.000210000000000,0.380000000000000,0.000818000000000,-0.384000000000000,0.000202000000000,0.000769000000000,0.682000000000000,0.903000000000000,
291000.000000000000000,-0.000144000000000,-0.000118000000000,-0.000092800000000,-0.000000037200000,0.000000022100000,0.000088500000000,0.000160000000000,-0.000026200000000,-0.000210000000000,0.381000000000000,0.000818000000000,-0.384000000000000,0.000203000000000,0.000770000000000,0.682000000000000,0.903000000000000,
291000.000000000000000,-0.000144000000000,-0.000118000000000,-0.000092800000000,-0.000000037200000,0.000000019200000,0.000088500000000,0.000160000000000,-0.000026200000000,-0.000210000000000,0.381000000000000,0.000819000000000,-0.385000000000000,0.000201000000000,0.000770000000000,0.683000000000000,0.904000000000000,
291000.000000000000000,-0.000144000000000,-0.000118000000000,-0.000092900000000,-0.000000037500000,0.000000020000000,0.000088500000000,0.000160000000000,-0.000026200000000,-0.000211000000000,0.381000000000000,0.000819000000000,-0.385000000000000,0.000202000000000,0.000771000000000,0.683000000000000,0.904000000000000,
291000.000000000000000,-0.000144000000000,-0.000118000000000,-0.000092900000000,-0.000000038200000,0.000000025300000,0.000088600000000,0.000160000000000,-0.000026200000000,-0.000211000000000,0.381000000000000,0.000819000000000,-0.385000000000000,0.000205000000000,0.000772000000000,0.683000000000000,0.904000000000000,
291000.000000000000000,-0.000144000000000,-0.000118000000000,-0.000092900000000,-0.000000038700000,0.000000030700000,0.000088600000000,0.000160000000000,-0.000026300000000,-0.000211000000000,0.382000000000000,0.000820000000000,-0.385000000000000,0.000208000000000,0.000773000000000,0.683000000000000,0.904000000000000,
291000.000000000000000,-0.000144000000000,-0.000118000000000,-0.000092900000000,-0.000000038900000,0.000000032400000,0.000088600000000,0.000160000000000,-0.000026300000000,-0.000211000000000,0.382000000000000,0.000820000000000,-0.386000000000000,0.000208000000000,0.000773000000000,0.683000000000000,0.905000000000000,
291000.000000000000000,-0.000144000000000,-0.000118000000000,-0.000092900000000,-0.000000038600000,0.000000031000000,0.000088600000000,0.000160000000000,-0.000026200000000,-0.000211000000000,0.382000000000000,0.000820000000000,-0.386000000000000,0.000207000000000,0.000773000000000,0.683000000000000,0.905000000000000,
291000.000000000000000,-0.000144000000000,-0.000118000000000,-0.000092900000000,-0.000000038300000,0.000000030600000,0.000088600000000,0.000160000000000,-0.000026300000000,-0.000211000000000,0.383000000000000,0.000820000000000,-0.386000000000000,0.000206000000000,0.000772000000000,0.683000000000000,0.905000000000000,
291000.000000000000000,-0.000144000000000,-0.000118000000000,-0.000092800000000,-0.000000038200000,0.000000032500000,0.000088600000000,0.000160000000000,-0.000026200000000,-0.000211000000000,0.383000000000000,0.000820000000000,-0.387000000000000,0.000207000000000,0.000772000000000,0.683000000000000,0.906000000000000,
291000.000000000000000,-0.000144000000000,-0.000118000000000,-0.000092900000000,-0.000000038000000,0.000000032500000,0.000088600000000,0.000160000000000,-0.000026300000000,-0.000211000000000,0.383000000000000,0.000820000000000,-0.387000000000000,0.000208000000000,0.000770000000000,0.684000000000000,0.906000000000000,
292000.000000000000000,-0.000144000000000,-0.000118000000000,-0.000092900000000,-0.000000037400000,0.000000028600000,0.000088600000000,0.000160000000000,-0.000026200000000,-0.000211000000000,0.383000000000000,0.000820000000000,-0.387000000000000,0.000206000000000,0.000769000000000,0.684000000000000,0.906000000000000,
292000.000000000000000,-0.000144000000000,-0.000118000000000,-0.000092900000000,-0.000000036900000,0.000000022500000,0.000088700000000,0.000160000000000,-0.000026300000000,-0.000211000000000,0.384000000000000,0.000821000000000,-0.387000000000000,0.000202000000000,0.000768000000000,0.684000000000000,0.906000000000000,
292000.000000000000000,-0.000144000000000,-0.000118000000000,-0.000093000000000,-0.000000036900000,0.000000020500000,0.000088700000000,0.000160000000000,-0.000026300000000,-0.000211000000000,0.384000000000000,0.000821000000000,-0.388000000000000,0.000202000000000,0.000768000000000,0.684000000000000,0.907000000000000,
292000.000000000000000,-0.000144000000000,-0.000118000000000,-0.000093000000000,-0.000000037200000,0.000000022700000,0.000088700000000,0.000160000000000,-0.000026300000000,-0.000211000000000,0.384000000000000,0.000821000000000,-0.388000000000000,0.000204000000000,0.000768000000000,0.684000000000000,0.907000000000000,
292000.000000000000000,-0.000144000000000,-0.000119000000000,-0.000093100000000,-0.000000037800000,0.000000024800000,0.000088700000000,0.000160000000000,-0.000026400000000,-0.000211000000000,0.385000000000000,0.000822000000000,-0.388000000000000,0.000205000000000,0.000769000000000,0.684000000000000,0.907000000000000,
292000.000000000000000,-0.000144000000000,-0.000119000000000,-0.000093100000000,-0.000000037900000,0.000000023700000,0.000088700000000,0.000160000000000,-0.000026400000000,-0.000211000000000,0.385000000000000,0.000822000000000,-0.389000000000000,0.000204000000000,0.000770000000000,0.684000000000000,0.908000000000000,
292000.000000000000000,-0.000145000000000,-0.000119000000000,-0.000093100000000,-0.000000038000000,0.000000022900000,0.000088700000000,0.000160000000000,-0.000026400000000,-0.000211000000000,0.385000000000000,0.000822000000000,-0.389000000000000,0.000204000000000,0.000771000000000,0.684000000000000,0.908000000000000,
292000.000000000000000,-0.000145000000000,-0.000119000000000,-0.000093100000000,-0.000000038400000,0.000000025500000,0.000088800000000,0.000160000000000,-0.000026500000000,-0.000211000000000,0.386000000000000,0.000822000000000,-0.389000000000000,0.000206000000000,0.000772000000000,0.684000000000000,0.908000000000000,
292000.000000000000000,-0.000145000000000,-0.000119000000000,-0.000093100000000,-0.000000038800000,0.000000031000000,0.000088800000000,0.000160000000000,-0.000026400000000,-0.000211000000000,0.386000000000000,0.000822000000000,-0.390000000000000,0.000209000000000,0.000773000000000,0.685000000000000,0.908000000000000,
292000.000000000000000,-0.000145000000000,-0.000119000000000,-0.000093200000000,-0.000000038500000,0.000000032400000,0.000088800000000,0.000160000000000,-0.000026500000000,-0.000211000000000,0.386000000000000,0.000823000000000,-0.390000000000000,0.000210000000000,0.000774000000000,0.685000000000000,0.909000000000000,
293000.000000000000000,-0.000145000000000,-0.000119000000000,-0.000093100000000,-0.000000038000000,0.000000029100000,0.000088800000000,0.000160000000000,-0.000026400000000,-0.000211000000000,0.386000000000000,0.000823000000000,-0.390000000000000,0.000209000000000,0.000774000000000,0.685000000000000,0.909000000000000,
293000.000000000000000,-0.000145000000000,-0.000119000000000,-0.000093100000000,-0.000000037400000,0.000000025100000,0.000088800000000,0.000160000000000,-0.000026400000000,-0.000211000000000,0.387000000000000,0.000823000000000,-0.391000000000000,0.000207000000000,0.000773000000000,0.685000000000000,0.909000000000000,
293000.000000000000000,-0.000145000000000,-0.000119000000000,-0.000093200000000,-0.000000037100000,0.000000025200000,0.000088800000000,0.000160000000000,-0.000026500000000,-0.000211000000000,0.387000000000000,0.000823000000000,-0.391000000000000,0.000208000000000,0.000772000000000,0.685000000000000,0.910000000000000,
293000.000000000000000,-0.000145000000000,-0.000119000000000,-0.000093100000000,-0.000000037400000,0.000000027800000,0.000088800000000,0.000160000000000,-0.000026400000000,-0.000211000000000,0.387000000000000,0.000824000000000,-0.391000000000000,0.000210000000000,0.000771000000000,0.685000000000000,0.910000000000000,
293000.000000000000000,-0.000145000000000,-0.000119000000000,-0.000093200000000,-0.000000037200000,0.000000026300000,0.000088900000000,0.000160000000000,-0.000026500000000,-0.000212000000000,0.388000000000000,0.000824000000000,-0.392000000000000,0.000209000000000,0.000770000000000,0.685000000000000,0.910000000000000,
293000.000000000000000,-0.000145000000000,-0.000119000000000,-0.000093200000000,-0.000000037300000,0.000000023200000,0.000088900000000,0.000160000000000,-0.000026500000000,-0.000212000000000,0.388000000000000,0.000824000000000,-0.392000000000000,0.000206000000000,0.000770000000000,0.685000000000000,0.911000000000000,
293000.000000000000000,-0.000145000000000,-0.000119000000000,-0.000093300000000,-0.000000037800000,0.000000022500000,0.000088900000000,0.000160000000000,-0.000026600000000,-0.000212000000000,0.389000000000000,0.000825000000000,-0.392000000000000,0.000205000000000,0.000769000000000,0.686000000000000,0.911000000000000,
293000.000000000000000,-0.000145000000000,-0.000119000000000,-0.000093400000000,-0.000000038400000,0.000000027300000,0.000088900000000,0.000160000000000,-0.000026600000000,-0.000212000000000,0.389000000000000,0.000825000000000,-0.393000000000000,0.000207000000000,0.000770000000000,0.686000000000000,0.911000000000000,
293000.000000000000000,-0.000145000000000,-0.000119000000000,-0.000093300000000,-0.000000039400000,0.000000033500000,0.000088900000000,0.000160000000000,-0.000026600000000,-0.000212000000000,0.389000000000000,0.000825000000000,-0.393000000000000,0.000209000000000,0.000771000000000,0.686000000000000,0.912000000000000,
293000.000000000000000,-0.000145000000000,-0.000119000000000,-0.000093400000000,-0.000000039600000,0.000000034500000,0.000089000000000,0.000160000000000,-0.000026700000000,-0.000212000000000,0.390000000000000,0.000825000000000,-0.393000000000000,0.000209000000000,0.000772000000000,0.686000000000000,0.912000000000000,
294000.000000000000000,-0.000145000000000,-0.000119000000000,-0.000093300000000,-0.000000039400000,0.000000032300000,0.000089000000000,0.000161000000000,-0.000026600000000,-0.000212000000000,0.390000000000000,0.000825000000000,-0.394000000000000,0.000207000000000,0.000772000000000,0.686000000000000,0.912000000000000,
294000.000000000000000,-0.000145000000000,-0.000119000000000,-0.000093300000000,-0.000000039200000,0.000000031400000,0.000089000000000,0.000161000000000,-0.000026600000000,-0.000212000000000,0.390000000000000,0.000826000000000,-0.394000000000000,0.000207000000000,0.000773000000000,0.686000000000000,0.913000000000000,
294000.000000000000000,-0.000145000000000,-0.000119000000000,-0.000093400000000,-0.000000039300000,0.000000033800000,0.000089000000000,0.000161000000000,-0.000026600000000,-0.000212000000000,0.391000000000000,0.000826000000000,-0.395000000000000,0.000210000000000,0.000774000000000,0.686000000000000,0.913000000000000,
294000.000000000000000,-0.000145000000000,-0.000119000000000,-0.000093300000000,-0.000000038700000,0.000000033900000,0.000089000000000,0.000161000000000,-0.000026500000000,-0.000212000000000,0.391000000000000,0.000826000000000,-0.395000000000000,0.000211000000000,0.000774000000000,0.686000000000000,0.913000000000000,
294000.000000000000000,-0.000145000000000,-0.000119000000000,-0.000093400000000,-0.000000038400000,0.000000029900000,0.000089000000000,0.000161000000000,-0.000026700000000,-0.000212000000000,0.392000000000000,0.000827000000000,-0.395000000000000,0.000210000000000,0.000774000000000,0.686000000000000,0.914000000000000,
294000.000000000000000,-0.000145000000000,-0.000119000000000,-0.000093400000000,-0.000000037800000,0.000000024000000,0.000089100000000,0.000161000000000,-0.000026600000000,-0.000212000000000,0.392000000000000,0.000827000000000,-0.396000000000000,0.000207000000000,0.000774000000000,0.687000000000000,0.914000000000000,
294000.000000000000000,-0.000146000000000,-0.000119000000000,-0.000093400000000,-0.000000037800000,0.000000023700000,0.000089100000000,0.000161000000000,-0.000026700000000,-0.000212000000000,0.392000000000000,0.000828000000000,-0.396000000000000,0.000208000000000,0.000774000000000,0.687000000000000,0.914000000000000,
294000.000000000000000,-0.000146000000000,-0.000119000000000,-0.000093600000000,-0.000000038700000,0.000000028900000,0.000089100000000,0.000161000000000,-0.000026800000000,-0.000212000000000,0.393000000000000,0.000828000000000,-0.397000000000000,0.000211000000000,0.000774000000000,0.687000000000000,0.915000000000000,
294000.000000000000000,-0.000146000000000,-0.000119000000000,-0.000093500000000,-0.000000039200000,0.000000032600000,0.000089100000000,0.000161000000000,-0.000026700000000,-0.000212000000000,0.393000000000000,0.000829000000000,-0.397000000000000,0.000212000000000,0.000774000000000,0.687000000000000,0.915000000000000,
294000.000000000000000,-0.000146000000000,-0.000120000000000,-0.000093600000000,-0.000000039900000,0.000000034400000,0.000089100000000,0.000161000000000,-0.000026900000000,-0.000213000000000,0.394000000000000,0.000829000000000,-0.397000000000000,0.000212000000000,0.000774000000000,0.687000000000000,0.915000000000000,
295000.000000000000000,-0.000146000000000,-0.000120000000000,-0.000093600000000,-0.000000040300000,0.000000035300000,0.000089200000000,0.000161000000000,-0.000026800000000,-0.000213000000000,0.394000000000000,0.000829000000000,-0.398000000000000,0.000211000000000,0.000774000000000,0.687000000000000,0.916000000000000,
295000.000000000000000,-0.000146000000000,-0.000120000000000,-0.000093600000000,-0.000000041000000,0.000000041200000,0.000089200000000,0.000161000000000,-0.000026800000000,-0.000213000000000,0.394000000000000,0.000829000000000,-0.398000000000000,0.000212000000000,0.000775000000000,0.687000000000000,0.916000000000000,
295000.000000000000000,-0.000146000000000,-0.000120000000000,-0.000093700000000,-0.000000041500000,0.000000047600000,0.000089200000000,0.000161000000000,-0.000026900000000,-0.000213000000000,0.395000000000000,0.000829000000000,-0.399000000000000,0.000215000000000,0.000775000000000,0.687000000000000,0.916000000000000,
295000.000000000000000,-0.000146000000000,-0.000120000000000,-0.000093600000000,-0.000000041700000,0.000000048800000,0.000089200000000,0.000161000000000,-0.000026800000000,-0.000213000000000,0.395000000000000,0.000829000000000,-0.399000000000000,0.000215000000000,0.000775000000000,0.688000000000000,0.917000000000000,
295000.000000000000000,-0.000146000000000,-0.000120000000000,-0.000093700000000,-0.000000040900000,0.000000043700000,0.000089200000000,0.000161000000000,-0.000026800000000,-0.000213000000000,0.395000000000000,0.000830000000000,-0.399000000000000,0.000212000000000,0.000774000000000,0.688000000000000,0.917000000000000,
295000.000000000000000,-0.000146000000000,-0.000120000000000,-0.000093600000000,-0.000000040300000,0.000000038600000,0.000089200000000,0.000161000000000,-0.000026800000000,-0.000213000000000,0.396000000000000,0.000830000000000,-0.400000000000000,0.000210000000000,0.000774000000000,0.688000000000000,0.917000000000000,
295000.000000000000000,-0.000146000000000,-0.000120000000000,-0.000093600000000,-0.000000040000000,0.000000036900000,0.000089300000000,0.000161000000000,-0.000026800000000,-0.000213000000000,0.396000000000000,0.000830000000000,-0.400000000000000,0.000210000000000,0.000774000000000,0.688000000000000,0.918000000000000,
295000.000000000000000,-0.000146000000000,-0.000120000000000,-0.000093700000000,-0.000000039700000,0.000000036100000,0.000089300000000,0.000161000000000,-0.000026800000000,-0.000213000000000,0.396000000000000,0.000831000000000,-0.400000000000000,0.000211000000000,0.000775000000000,0.688000000000000,0.918000000000000,
295000.000000000000000,-0.000146000000000,-0.000120000000000,-0.000093700000000,-0.000000039400000,0.000000031900000,0.000089300000000,0.000161000000000,-0.000026800000000,-0.000213000000000,0.397000000000000,0.000831000000000,-0.401000000000000,0.000210000000000,0.000775000000000,0.688000000000000,0.918000000000000,
295000.000000000000000,-0.000146000000000,-0.000120000000000,-0.000093800000000,-0.000000039000000,0.000000026100000,0.000089300000000,0.000161000000000,-0.000026900000000,-0.000213000000000,0.397000000000000,0.000831000000000,-0.401000000000000,0.000208000000000,0.000775000000000,0.688000000000000,0.919000000000000,
296000.000000000000000,-0.000146000000000,-0.000120000000000,-0.000093800000000,-0.000000039100000,0.000000025500000,0.000089300000000,0.000161000000000,-0.000026900000000,-0.000213000000000,0.397000000000000,0.000831000000000,-0.401000000000000,0.000208000000000,0.000776000000000,0.688000000000000,0.919000000000000,
296000.000000000000000,-0.000146000000000,-0.000120000000000,-0.000093800000000,-0.000000039900000,0.000000030900000,0.000089300000000,0.000161000000000,-0.000026900000000,-0.000213000000000,0.398000000000000,0.000832000000000,-0.402000000000000,0.000211000000000,0.000777000000000,0.688000000000000,0.919000000000000,
296000.000000000000000,-0.000147000000000,-0.000120000000000,-0.000093900000000,-0.000000040400000,0.000000036900000,0.000089400000000,0.000161000000000,-0.000027100000000,-0.000213000000000,0.398000000000000,0.000832000000000,-0.402000000000000,0.000215000000000,0.000778000000000,0.689000000000000,0.919000000000000,
296000.000000000000000,-0.000146000000000,-0.000120000000000,-0.000093900000000,-0.000000041000000,0.000000039400000,0.000089400000000,0.000161000000000,-0.000027000000000,-0.000213000000000,0.398000000000000,0.000832000000000,-0.402000000000000,0.000215000000000,0.000778000000000,0.689000000000000,0.920000000000000,
296000.000000000000000,-0.000147000000000,-0.000120000000000,-0.000093900000000,-0.000000041200000,0.000000039800000,0.000089400000000,0.000161000000000,-0.000027000000000,-0.000213000000000,0.399000000000000,0.000832000000000,-0.402000000000000,0.000215000000000,0.000779000000000,0.689000000000000,0.920000000000000,
296000.000000000000000,-0.000148000000000,-0.000121000000000,-0.000095100000000,-0.000000038600000,0.000000043200000,0.000089400000000,0.000161000000000,-0.000028200000000,-0.000215000000000,0.399000000000000,0.000841000000000,-0.403000000000000,0.000217000000000,0.000782000000000,0.689000000000000,0.921000000000000,
296000.000000000000000,-0.000147000000000,-0.000120000000000,-0.000094100000000,-0.000000038900000,0.000000042000000,0.000089400000000,0.000161000000000,-0.000027300000000,-0.000214000000000,0.400000000000000,0.000834000000000,-0.403000000000000,0.000217000000000,0.000778000000000,0.689000000000000,0.921000000000000,
296000.000000000000000,-0.000148000000000,-0.000121000000000,-0.000094800000000,-0.000000041300000,0.000000041100000,0.000089400000000,0.000162000000000,-0.000027900000000,-0.000214000000000,0.400000000000000,0.000840000000000,-0.404000000000000,0.000216000000000,0.000776000000000,0.689000000000000,0.921000000000000,
296000.000000000000000,-0.000148000000000,-0.000121000000000,-0.000094800000000,-0.000000040400000,0.000000041200000,0.000089400000000,0.000161000000000,-0.000028000000000,-0.000214000000000,0.400000000000000,0.000840000000000,-0.404000000000000,0.000215000000000,0.000775000000000,0.689000000000000,0.921000000000000,
296000.000000000000000,-0.000147000000000,-0.000121000000000,-0.000094700000000,-0.000000040200000,0.000000041000000,0.000089400000000,0.000162000000000,-0.000027800000000,-0.000214000000000,0.400000000000000,0.000838000000000,-0.404000000000000,0.000214000000000,0.000777000000000,0.689000000000000,0.921000000000000,
297000.000000000000000,-0.000148000000000,-0.000121000000000,-0.000094800000000,-0.000000039400000,0.000000033000000,0.000089500000000,0.000162000000000,-0.000027900000000,-0.000214000000000,0.400000000000000,0.000838000000000,-0.404000000000000,0.000212000000000,0.000774000000000,0.689000000000000,0.922000000000000,
297000.000000000000000,-0.000147000000000,-0.000121000000000,-0.000094400000000,-0.000000041200000,0.000000040700000,0.000089500000000,0.000162000000000,-0.000027600000000,-0.000214000000000,0.400000000000000,0.000838000000000,-0.404000000000000,0.000214000000000,0.000776000000000,0.689000000000000,0.922000000000000,
297000.000000000000000,-0.000147000000000,-0.000121000000000,-0.000094600000000,-0.000000039900000,0.000000039400000,0.000089500000000,0.000162000000000,-0.000027700000000,-0.000214000000000,0.400000000000000,0.000838000000000,-0.404000000000000,0.000215000000000,0.000776000000000,0.690000000000000,0.922000000000000,
297000.000000000000000,-0.000148000000000,-0.000121000000000,-0.000094800000000,-0.000000039000000,0.000000031900000,0.000089500000000,0.000162000000000,-0.000027900000000,-0.000215000000000,0.401000000000000,0.000838000000000,-0.404000000000000,0.000213000000000,0.000775000000000,0.690000000000000,0.922000000000000,
297000.000000000000000,-0.000147000000000,-0.000121000000000,-0.000094500000000,-0.000000040500000,0.000000035000000,0.000089500000000,0.000162000000000,-0.000027700000000,-0.000214000000000,0.401000000000000,0.000838000000000,-0.405000000000000,0.000212000000000,0.000777000000000,0.690000000000000,0.922000000000000,
297000.000000000000000,-0.000148000000000,-0.000121000000000,-0.000094500000000,-0.000000040000000,0.000000036000000,0.000089500000000,0.000162000000000,-0.000027700000000,-0.000214000000000,0.401000000000000,0.000838000000000,-0.405000000000000,0.000213000000000,0.000778000000000,0.690000000000000,0.922000000000000,
297000.000000000000000,-0.000148000000000,-0.000121000000000,-0.000094700000000,-0.000000040000000,0.000000038600000,0.000089500000000,0.000162000000000,-0.000027900000000,-0.000215000000000,0.401000000000000,0.000838000000000,-0.405000000000000,0.000216000000000,0.000777000000000,0.690000000000000,0.923000000000000,
297000.000000000000000,-0.000148000000000,-0.000121000000000,-0.000094600000000,-0.000000040600000,0.000000040700000,0.000089500000000,0.000162000000000,-0.000027800000000,-0.000214000000000,0.401000000000000,0.000839000000000,-0.405000000000000,0.000218000000000,0.000778000000000,0.690000000000000,0.923000000000000,
297000.000000000000000,-0.000148000000000,-0.000121000000000,-0.000094600000000,-0.000000039600000,0.000000033100000,0.000089500000000,0.000162000000000,-0.000027800000000,-0.000214000000000,0.401000000000000,0.000839000000000,-0.405000000000000,0.000215000000000,0.000777000000000,0.690000000000000,0.923000000000000,
297000.000000000000000,-0.000148000000000,-0.000121000000000,-0.000094700000000,-0.000000039700000,0.000000035000000,0.000089500000000,0.000162000000000,-0.000027900000000,-0.000215000000000,0.401000000000000,0.000839000000000,-0.405000000000000,0.000215000000000,0.000778000000000,0.690000000000000,0.923000000000000,
298000.000000000000000,-0.000148000000000,-0.000121000000000,-0.000094600000000,-0.000000041900000,0.000000045300000,0.000089500000000,0.000162000000000,-0.000027700000000,-0.000214000000000,0.401000000000000,0.000839000000000,-0.405000000000000,0.000217000000000,0.000780000000000,0.690000000000000,0.923000000000000,
298000.000000000000000,-0.000148000000000,-0.000121000000000,-0.000094600000000,-0.000000040800000,0.000000039300000,0.000089500000000,0.000162000000000,-0.000027700000000,-0.000214000000000,0.401000000000000,0.000840000000000,-0.405000000000000,0.000216000000000,0.000778000000000,0.690000000000000,0.923000000000000,
298000.000000000000000,-0.000148000000000,-0.000121000000000,-0.000094800000000,-0.000000039800000,0.000000037900000,0.000089500000000,0.000162000000000,-0.000027900000000,-0.000215000000000,0.402000000000000,0.000839000000000,-0.405000000000000,0.000217000000000,0.000776000000000,0.690000000000000,0.923000000000000,
298000.000000000000000,-0.000148000000000,-0.000121000000000,-0.000094600000000,-0.000000041900000,0.000000043800000,0.000089500000000,0.000162000000000,-0.000027800000000,-0.000215000000000,0.402000000000000,0.000839000000000,-0.405000000000000,0.000216000000000,0.000778000000000,0.690000000000000,0.923000000000000,
298000.000000000000000,-0.000148000000000,-0.000121000000000,-0.000094400000000,-0.000000042600000,0.000000043900000,0.000089500000000,0.000162000000000,-0.000027600000000,-0.000214000000000,0.402000000000000,0.000839000000000,-0.405000000000000,0.000214000000000,0.000779000000000,0.690000000000000,0.923000000000000,
298000.000000000000000,-0.000148000000000,-0.000121000000000,-0.000094500000000,-0.000000042000000,0.000000046000000,0.000089500000000,0.000162000000000,-0.000027700000000,-0.000214000000000,0.402000000000000,0.000840000000000,-0.405000000000000,0.000215000000000,0.000778000000000,0.690000000000000,0.923000000000000,
298000.000000000000000,-0.000148000000000,-0.000121000000000,-0.000094900000000,-0.000000042200000,0.000000047900000,0.000089500000000,0.000162000000000,-0.000028100000000,-0.000215000000000,0.402000000000000,0.000839000000000,-0.406000000000000,0.000217000000000,0.000778000000000,0.690000000000000,0.924000000000000,
298000.000000000000000,-0.000148000000000,-0.000121000000000,-0.000094500000000,-0.000000045400000,0.000000058400000,0.000089600000000,0.000162000000000,-0.000027700000000,-0.000215000000000,0.402000000000000,0.000840000000000,-0.406000000000000,0.000219000000000,0.000779000000000,0.690000000000000,0.924000000000000,
298000.000000000000000,-0.000148000000000,-0.000121000000000,-0.000094500000000,-0.000000047000000,0.000000065800000,0.000089600000000,0.000162000000000,-0.000027600000000,-0.000215000000000,0.403000000000000,0.000842000000000,-0.407000000000000,0.000218000000000,0.000782000000000,0.691000000000000,0.924000000000000,
298000.000000000000000,-0.000148000000000,-0.000121000000000,-0.000094800000000,-0.000000047200000,0.000000068800000,0.000089600000000,0.000162000000000,-0.000027900000000,-0.000215000000000,0.404000000000000,0.000842000000000,-0.408000000000000,0.000218000000000,0.000784000000000,0.691000000000000,0.925000000000000,
299000.000000000000000,-0.000148000000000,-0.000121000000000,-0.000094900000000,-0.000000051800000,0.000000084800000,0.000089700000000,0.000162000000000,-0.000027900000000,-0.000215000000000,0.406000000000000,0.000843000000000,-0.409000000000000,0.000220000000000,0.000788000000000,0.691000000000000,0.926000000000000,
299000.000000000000000,-0.000148000000000,-0.000121000000000,-0.000094700000000,-0.000000054300000,0.000000098600000,0.000089800000000,0.000162000000000,-0.000027700000000,-0.000215000000000,0.407000000000000,0.000846000000000,-0.411000000000000,0.000223000000000,0.000793000000000,0.691000000000000,0.927000000000000,
299000.000000000000000,-0.000148000000000,-0.000122000000000,-0.000095200000000,-0.000000055800000,0.000000106000000,0.000089900000000,0.000162000000000,-0.000028100000000,-0.000216000000000,0.409000000000000,0.000846000000000,-0.413000000000000,0.000225000000000,0.000796000000000,0.691000000000000,0.928000000000000,
299000.000000000000000,-0.000148000000000,-0.000121000000000,-0.000094900000000,-0.000000058800000,0.000000114000000,0.000089900000000,0.000162000000000,-0.000027700000000,-0.000215000000000,0.410000000000000,0.000848000000000,-0.414000000000000,0.000224000000000,0.000800000000000,0.691000000000000,0.929000000000000,
299000.000000000000000,-0.000149000000000,-0.000122000000000,-0.000095300000000,-0.000000058300000,0.000000115000000,0.000090000000000,0.000163000000000,-0.000028100000000,-0.000216000000000,0.411000000000000,0.000848000000000,-0.415000000000000,0.000223000000000,0.000801000000000,0.691000000000000,0.930000000000000,
299000.000000000000000,-0.000148000000000,-0.000122000000000,-0.000095100000000,-0.000000060500000,0.000000121000000,0.000090000000000,0.000163000000000,-0.000027900000000,-0.000216000000000,0.412000000000000,0.000849000000000,-0.416000000000000,0.000224000000000,0.000803000000000,0.691000000000000,0.930000000000000,
299000.000000000000000,-0.000149000000000,-0.000122000000000,-0.000095300000000,-0.000000059200000,0.000000119000000,0.000090000000000,0.000163000000000,-0.000028100000000,-0.000216000000000,0.412000000000000,0.000850000000000,-0.416000000000000,0.000224000000000,0.000803000000000,0.691000000000000,0.931000000000000,
299000.000000000000000,-0.000149000000000,-0.000122000000000,-0.000095200000000,-0.000000060000000,0.000000120000000,0.000090000000000,0.000163000000000,-0.000028000000000,-0.000216000000000,0.413000000000000,0.000850000000000,-0.417000000000000,0.000225000000000,0.000803000000000,0.691000000000000,0.931000000000000,
299000.000000000000000,-0.000149000000000,-0.000122000000000,-0.000095300000000,-0.000000059700000,0.000000120000000,0.000090100000000,0.000163000000000,-0.000028000000000,-0.000216000000000,0.413000000000000,0.000850000000000,-0.417000000000000,0.000224000000000,0.000804000000000,0.692000000000000,0.931000000000000,
299000.000000000000000,-0.000149000000000,-0.000122000000000,-0.000095300000000,-0.000000059700000,0.000000118000000,0.000090100000000,0.000163000000000,-0.000028100000000,-0.000216000000000,0.413000000000000,0.000850000000000,-0.417000000000000,0.000222000000000,0.000804000000000,0.692000000000000,0.932000000000000,
300000.000000000000000,-0.000149000000000,-0.000122000000000,-0.000095300000000,-0.000000059100000,0.000000116000000,0.000090100000000,0.000163000000000,-0.000028100000000,-0.000216000000000,0.414000000000000,0.000851000000000,-0.417000000000000,0.000223000000000,0.000803000000000,0.692000000000000,0.932000000000000,
300000.000000000000000,-0.000149000000000,-0.000122000000000,-0.000095400000000,-0.000000059100000,0.000000117000000,0.000090100000000,0.000163000000000,-0.000028200000000,-0.000216000000000,0.414000000000000,0.000851000000000,-0.418000000000000,0.000224000000000,0.000803000000000,0.692000000000000,0.932000000000000,
300000.000000000000000,-0.000149000000000,-0.000122000000000,-0.000095300000000,-0.000000059300000,0.000000120000000,0.000090100000000,0.000163000000000,-0.000028100000000,-0.000216000000000,0.414000000000000,0.000851000000000,-0.418000000000000,0.000226000000000,0.000803000000000,0.692000000000000,0.932000000000000,
300000.000000000000000,-0.000149000000000,-0.000122000000000,-0.000095100000000,-0.000000062600000,0.000000119000000,0.000090000000000,0.000163000000000,-0.000028000000000,-0.000216000000000,0.415000000000000,0.000847000000000,-0.418000000000000,0.000223000000000,0.000803000000000,0.692000000000000,0.933000000000000,
300000.000000000000000,-0.000149000000000,-0.000122000000000,-0.000095700000000,-0.000000050400000,0.000000097000000,0.000089600000000,0.000162000000000,-0.000028900000000,-0.000216000000000,0.415000000000000,0.000853000000000,-0.419000000000000,0.000227000000000,0.000800000000000,0.692000000000000,0.933000000000000,
300000.000000000000000,-0.000149000000000,-0.000122000000000,-0.000095700000000,-0.000000050400000,0.000000097000000,0.000089600000000,0.000162000000000,-0.000028900000000,-0.000216000000000,0.415000000000000,0.000853000000000,-0.419000000000000,0.000227000000000,0.000800000000000,0.692000000000000,0.933000000000000,
