Time,X-stress-7168,Y-stress-7168,Z-stress-7168,XY-stress-7168,YZ-stress-7168,ZX-stress-7168,Effective Stress (v-m)-7168,Tresca (max shear stress)-7168,Maximum Principal Stress-7168,Minimum Principal Stress-7168,X-strain-7168,Y-strain-7168,Z-strain-7168,XY-strain-7168,YZ-strain-7168,ZX-strain-7168,Effective Strain-7168
0.0000000000000000,0.0000000000000000,0.0000000000000000,0.0000000000000000,0.0000000000000000,0.0000000000000000,0.0000000000000000,0.0000000000000000,0.0000000000000000,0.0000000000000000,0.0000000000000000,0.0000000000000000,0.0000000000000000,0.0000000000000000,0.0000000000000000,0.0000000000000000,0.0000000000000000,0.0000000000000000
100.0000000000000000,0.0000000039700000,0.0000000078000000,0.0000000114000000,-0.0000000003840000,-0.0000000058100000,0.0000002820000000,0.0000004890000000,0.0000002820000000,0.0000002900000000,-0.0000002740000000,-0.0000022200000000,0.0000001080000000,0.0000023000000000,-0.0000002340000000,-0.0000035400000000,0.0001720000000000,0.0001980000000000
200.0000000000000000,-0.0000025800000000,-0.0000025600000000,-0.0000027300000000,0.0000000021300000,0.0000000558000000,0.0000020200000000,0.0000035100000000,0.0000020300000000,-0.0000006300000000,-0.0000046800000000,0.0000063200000000,0.0000172000000000,-0.0000878000000000,0.0000012900000000,0.0000339000000000,0.0012300000000000,0.0014200000000000
300.0000000000000000,-0.0000005660000000,-0.0000005550000000,-0.0000005880000000,-0.0000000010300000,0.0000000327000000,0.0000029800000000,0.0000051700000000,0.0000029800000000,0.0000024100000000,-0.0000035600000000,-0.0000025200000000,0.0000041600000000,-0.0000156000000000,-0.0000006270000000,0.0000199000000000,0.0018200000000000,0.0021000000000000
400.0000000000000000,-0.0000027100000000,-0.0000026900000000,-0.0000028700000000,0.0000000038100000,0.0000000770000000,0.0000039500000000,0.0000068500000000,0.0000039500000000,0.0000011600000000,-0.0000067500000000,0.0000042700000000,0.0000188000000000,-0.0000907000000000,0.0000023200000000,0.0000468000000000,0.0024000000000000,0.0027800000000000
500.0000000000000000,-0.0000055100000000,-0.0000054800000000,-0.0000058700000000,0.0000000048400000,0.0000001020000000,0.0000044100000000,0.0000076600000000,0.0000044200000000,-0.0000012700000000,-0.0000101000000000,0.0000186000000000,0.0000386000000000,-0.0001950000000000,0.0000029400000000,0.0000621000000000,0.0026800000000000,0.0031000000000000
600.0000000000000000,-0.0000060800000000,-0.0000060400000000,-0.0000064600000000,0.0000000053900000,0.0000001010000000,0.0000062900000000,0.0000109000000000,0.0000062900000000,0.0000000236000000,-0.0000126000000000,0.0000179000000000,0.0000427000000000,-0.0002120000000000,0.0000032800000000,0.0000613000000000,0.0038200000000000,0.0044200000000000
700.0000000000000000,-0.0000109000000000,-0.0000108000000000,-0.0000115000000000,0.0000000115000000,0.0000001610000000,0.0000078300000000,0.0000136000000000,0.0000078400000000,-0.0000033400000000,-0.0000190000000000,0.0000291000000000,0.0000763000000000,-0.0003760000000000,0.0000069800000000,0.0000981000000000,0.0047600000000000,0.0055100000000000
800.0000000000000000,-0.0000122000000000,-0.0000121000000000,-0.0000129000000000,0.0000000120000000,0.0000001710000000,0.0000084500000000,0.0000147000000000,0.0000084600000000,-0.0000040900000000,-0.0000210000000000,0.0000328000000000,0.0000850000000000,-0.0004210000000000,0.0000072800000000,0.0001040000000000,0.0051400000000000,0.0059400000000000
900.0000000000000000,-0.0000097900000000,-0.0000096900000000,-0.0000103000000000,0.0000000095900000,0.0000001960000000,0.0000106000000000,0.0000184000000000,0.0000106000000000,0.0000005740000000,-0.0000207000000000,0.0000060300000000,0.0000687000000000,-0.0003180000000000,0.0000058300000000,0.0001190000000000,0.0064600000000000,0.0074700000000000
1000.0000000000000000,-0.0000113000000000,-0.0000112000000000,-0.0000119000000000,0.0000000106000000,0.0000002230000000,0.0000110000000000,0.0000191000000000,0.0000110000000000,-0.0000005920000000,-0.0000227000000000,0.0000109000000000,0.0000792000000000,-0.0003720000000000,0.0000064600000000,0.0001360000000000,0.0067100000000000,0.0077600000000000
1100.0000000000000000,-0.0000105000000000,-0.0000104000000000,-0.0000111000000000,0.0000000096900000,0.0000002210000000,0.0000113000000000,0.0000195000000000,0.0000113000000000,0.0000005100000000,-0.0000221000000000,0.0000019800000000,0.0000737000000000,-0.0003360000000000,0.0000058900000000,0.0001340000000000,0.0068600000000000,0.0079300000000000
1200.0000000000000000,-0.0000100000000000,-0.0000098900000000,-0.0000105000000000,0.0000000081700000,0.0000002430000000,0.0000127000000000,0.0000221000000000,0.0000128000000000,0.0000024800000000,-0.0000230000000000,-0.0000101000000000,0.0000708000000000,-0.0003090000000000,0.0000049700000000,0.0001480000000000,0.0077500000000000,0.0089600000000000
1300.0000000000000000,-0.0000135000000000,-0.0000134000000000,-0.0000142000000000,0.0000000126000000,0.0000002640000000,0.0000137000000000,0.0000237000000000,0.0000137000000000,-0.0000001790000000,-0.0000276000000000,0.0000011000000000,0.0000945000000000,-0.0004320000000000,0.0000076900000000,0.0001600000000000,0.0083300000000000,0.0096300000000000
1400.0000000000000000,-0.0000162000000000,-0.0000160000000000,-0.0000171000000000,0.0000000147000000,0.0000003000000000,0.0000147000000000,0.0000255000000000,0.0000147000000000,-0.0000018900000000,-0.0000314000000000,0.0000012900000000,0.0001140000000000,-0.0005170000000000,0.0000089400000000,0.0001830000000000,0.0089600000000000,0.0104000000000000
1500.0000000000000000,-0.0000204000000000,-0.0000202000000000,-0.0000215000000000,0.0000000192000000,0.0000003260000000,0.0000172000000000,0.0000299000000000,0.0000172000000000,-0.0000037100000000,-0.0000382000000000,0.0000039700000000,0.0001430000000000,-0.0006540000000000,0.0000117000000000,0.0001990000000000,0.0105000000000000,0.0121000000000000
1600.0000000000000000,-0.0000230000000000,-0.0000227000000000,-0.0000242000000000,0.0000000222000000,0.0000003500000000,0.0000180000000000,0.0000311000000000,0.0000180000000000,-0.0000056200000000,-0.0000416000000000,0.0000079300000000,0.0001610000000000,-0.0007390000000000,0.0000135000000000,0.0002130000000000,0.0109000000000000,0.0126000000000000
1700.0000000000000000,-0.0000212000000000,-0.0000210000000000,-0.0000223000000000,0.0000000181000000,0.0000003480000000,0.0000190000000000,0.0000330000000000,0.0000190000000000,-0.0000027200000000,-0.0000408000000000,-0.0000231000000000,0.0001510000000000,-0.0006540000000000,0.0000110000000000,0.0002120000000000,0.0116000000000000,0.0134000000000000
1800.0000000000000000,-0.0000206000000000,-0.0000203000000000,-0.0000216000000000,0.0000000185000000,0.0000003700000000,0.0000203000000000,0.0000353000000000,0.0000204000000000,-0.0000007510000000,-0.0000415000000000,-0.0000209000000000,0.0001430000000000,-0.0006320000000000,0.0000112000000000,0.0002250000000000,0.0124000000000000,0.0143000000000000
1900.0000000000000000,-0.0000205000000000,-0.0000202000000000,-0.0000215000000000,0.0000000181000000,0.0000003910000000,0.0000204000000000,0.0000354000000000,0.0000204000000000,-0.0000006030000000,-0.0000414000000000,-0.0000370000000000,0.0001440000000000,-0.0006160000000000,0.0000110000000000,0.0002380000000000,0.0124000000000000,0.0143000000000000
2000.0000000000000000,-0.0000208000000000,-0.0000205000000000,-0.0000218000000000,0.0000000208000000,0.0000003860000000,0.0000210000000000,0.0000364000000000,0.0000210000000000,-0.0000002710000000,-0.0000423000000000,-0.0000430000000000,0.0001450000000000,-0.0006180000000000,0.0000127000000000,0.0002340000000000,0.0128000000000000,0.0148000000000000
2100.0000000000000000,-0.0000224000000000,-0.0000221000000000,-0.0000234000000000,0.0000000216000000,0.0000004170000000,0.0000226000000000,0.0000391000000000,0.0000226000000000,-0.0000003390000000,-0.0000455000000000,-0.0000447000000000,0.0001560000000000,-0.0006650000000000,0.0000131000000000,0.0002540000000000,0.0137000000000000,0.0159000000000000
2200.0000000000000000,-0.0000249000000000,-0.0000246000000000,-0.0000261000000000,0.0000000239000000,0.0000005190000000,0.0000234000000000,0.0000406000000000,0.0000235000000000,-0.0000020500000000,-0.0000490000000000,-0.0000486000000000,0.0001740000000000,-0.0007420000000000,0.0000145000000000,0.0003150000000000,0.0143000000000000,0.0165000000000000
2300.0000000000000000,-0.0000290000000000,-0.0000285000000000,-0.0000303000000000,0.0000000256000000,0.0000005000000000,0.0000252000000000,0.0000437000000000,0.0000252000000000,-0.0000044000000000,-0.0000549000000000,-0.0000473000000000,0.0002020000000000,-0.0008710000000000,0.0000156000000000,0.0003040000000000,0.0153000000000000,0.0177000000000000
2400.0000000000000000,-0.0000295000000000,-0.0000291000000000,-0.0000309000000000,0.0000000278000000,0.0000005560000000,0.0000270000000000,0.0000468000000000,0.0000270000000000,-0.0000031600000000,-0.0000572000000000,-0.0000656000000000,0.0002060000000000,-0.0008710000000000,0.0000169000000000,0.0003380000000000,0.0164000000000000,0.0190000000000000
2500.0000000000000000,-0.0000314000000000,-0.0000309000000000,-0.0000328000000000,0.0000000290000000,0.0000005720000000,0.0000279000000000,0.0000483000000000,0.0000279000000000,-0.0000041900000000,-0.0000599000000000,-0.0000768000000000,0.0002190000000000,-0.0009180000000000,0.0000176000000000,0.0003480000000000,0.0169000000000000,0.0196000000000000
2600.0000000000000000,-0.0000317000000000,-0.0000312000000000,-0.0000330000000000,0.0000000286000000,0.0000005700000000,0.0000293000000000,0.0000507000000000,0.0000293000000000,-0.0000030700000000,-0.0000616000000000,-0.0000929000000000,0.0002210000000000,-0.0009100000000000,0.0000174000000000,0.0003470000000000,0.0178000000000000,0.0206000000000000
2700.0000000000000000,-0.0000317000000000,-0.0000311000000000,-0.0000330000000000,0.0000000289000000,0.0000006270000000,0.0000300000000000,0.0000520000000000,0.0000300000000000,-0.0000022800000000,-0.0000624000000000,-0.0001120000000000,0.0002210000000000,-0.0008910000000000,0.0000176000000000,0.0003810000000000,0.0183000000000000,0.0211000000000000
2800.0000000000000000,-0.0000338000000000,-0.0000333000000000,-0.0000353000000000,0.0000000298000000,0.0000005970000000,0.0000299000000000,0.0000518000000000,0.0000299000000000,-0.0000046700000000,-0.0000644000000000,-0.0001070000000000,0.0002350000000000,-0.0009640000000000,0.0000181000000000,0.0003630000000000,0.0182000000000000,0.0210000000000000
2900.0000000000000000,-0.0000336000000000,-0.0000330000000000,-0.0000349000000000,0.0000000286000000,0.0000006130000000,0.0000310000000000,0.0000538000000000,0.0000310000000000,-0.0000031800000000,-0.0000653000000000,-0.0001300000000000,0.0002340000000000,-0.0009310000000000,0.0000174000000000,0.0003730000000000,0.0189000000000000,0.0218000000000000
3000.0000000000000000,-0.0000340000000000,-0.0000333000000000,-0.0000352000000000,0.0000000291000000,0.0000006100000000,0.0000318000000000,0.0000551000000000,0.0000318000000000,-0.0000028100000000,-0.0000664000000000,-0.0001450000000000,0.0002370000000000,-0.0009290000000000,0.0000177000000000,0.0003710000000000,0.0193000000000000,0.0223000000000000
3100.0000000000000000,-0.0000345000000000,-0.0000339000000000,-0.0000358000000000,0.0000000307000000,0.0000006820000000,0.0000330000000000,0.0000572000000000,0.0000330000000000,-0.0000021300000000,-0.0000682000000000,-0.0001560000000000,0.0002400000000000,-0.0009340000000000,0.0000187000000000,0.0004150000000000,0.0201000000000000,0.0232000000000000
3200.0000000000000000,-0.0000343000000000,-0.0000337000000000,-0.0000355000000000,0.0000000300000000,0.0000007250000000,0.0000355000000000,0.0000615000000000,0.0000355000000000,0.0000005780000000,-0.0000704000000000,-0.0001800000000000,0.0002390000000000,-0.0009030000000000,0.0000183000000000,0.0004410000000000,0.0216000000000000,0.0249000000000000
3300.0000000000000000,-0.0000390000000000,-0.0000382000000000,-0.0000404000000000,0.0000000336000000,0.0000007000000000,0.0000370000000000,0.0000641000000000,0.0000370000000000,-0.0000026700000000,-0.0000767000000000,-0.0001740000000000,0.0002710000000000,-0.0010600000000000,0.0000204000000000,0.0004260000000000,0.0225000000000000,0.0260000000000000
3400.0000000000000000,-0.0000410000000000,-0.0000402000000000,-0.0000425000000000,0.0000000371000000,0.0000007770000000,0.0000390000000000,0.0000676000000000,0.0000390000000000,-0.0000027400000000,-0.0000808000000000,-0.0001800000000000,0.0002850000000000,-0.0011100000000000,0.0000226000000000,0.0004730000000000,0.0237000000000000,0.0274000000000000
3500.0000000000000000,-0.0000427000000000,-0.0000419000000000,-0.0000443000000000,0.0000000381000000,0.0000008060000000,0.0000409000000000,0.0000708000000000,0.0000409000000000,-0.0000026400000000,-0.0000844000000000,-0.0001900000000000,0.0002970000000000,-0.0011600000000000,0.0000232000000000,0.0004900000000000,0.0248000000000000,0.0287000000000000
3600.0000000000000000,-0.0000431000000000,-0.0000423000000000,-0.0000447000000000,0.0000000391000000,0.0000008980000000,0.0000423000000000,0.0000732000000000,0.0000423000000000,-0.0000016500000000,-0.0000862000000000,-0.0001990000000000,0.0003000000000000,-0.0011600000000000,0.0000238000000000,0.0005460000000000,0.0257000000000000,0.0297000000000000
3700.0000000000000000,-0.0000421000000000,-0.0000413000000000,-0.0000436000000000,0.0000000386000000,0.0000008830000000,0.0000443000000000,0.0000767000000000,0.0000443000000000,0.0000014200000000,-0.0000871000000000,-0.0002170000000000,0.0002930000000000,-0.0011100000000000,0.0000234000000000,0.0005370000000000,0.0269000000000000,0.0311000000000000
3800.0000000000000000,-0.0000430000000000,-0.0000421000000000,-0.0000445000000000,0.0000000397000000,0.0000009040000000,0.0000457000000000,0.0000792000000000,0.0000457000000000,0.0000019700000000,-0.0000895000000000,-0.0002260000000000,0.0002990000000000,-0.0011300000000000,0.0000241000000000,0.0005500000000000,0.0278000000000000,0.0321000000000000
3900.0000000000000000,-0.0000441000000000,-0.0000432000000000,-0.0000457000000000,0.0000000413000000,0.0000010100000000,0.0000477000000000,0.0000827000000000,0.0000477000000000,0.0000028100000000,-0.0000926000000000,-0.0002280000000000,0.0003070000000000,-0.0011700000000000,0.0000251000000000,0.0006160000000000,0.0290000000000000,0.0335000000000000
4000.0000000000000000,-0.0000449000000000,-0.0000440000000000,-0.0000464000000000,0.0000000424000000,0.0000010600000000,0.0000497000000000,0.0000861000000000,0.0000497000000000,0.0000040300000000,-0.0000953000000000,-0.0002340000000000,0.0003120000000000,-0.0011800000000000,0.0000258000000000,0.0006430000000000,0.0302000000000000,0.0349000000000000
4100.0000000000000000,-0.0000448000000000,-0.0000439000000000,-0.0000463000000000,0.0000000425000000,0.0000010700000000,0.0000518000000000,0.0000898000000000,0.0000518000000000,0.0000062600000000,-0.0000974000000000,-0.0002440000000000,0.0003120000000000,-0.0011700000000000,0.0000259000000000,0.0006500000000000,0.0315000000000000,0.0364000000000000
4200.0000000000000000,-0.0000458000000000,-0.0000450000000000,-0.0000474000000000,0.0000000416000000,0.0000010700000000,0.0000524000000000,0.0000907000000000,0.0000524000000000,0.0000057700000000,-0.0000990000000000,-0.0002410000000000,0.0003190000000000,-0.0012100000000000,0.0000261000000000,0.0006740000000000,0.0329000000000000,0.0380000000000000
4300.0000000000000000,-0.0000469000000000,-0.0000460000000000,-0.0000484000000000,0.0000000432000000,0.0000011500000000,0.0000524000000000,0.0000908000000000,0.0000524000000000,0.0000047900000000,-0.0001000000000000,-0.0002440000000000,0.0003270000000000,-0.0012400000000000,0.0000285000000000,0.0007530000000000,0.0344000000000000,0.0397000000000000
4400.0000000000000000,-0.0000476000000000,-0.0000468000000000,-0.0000491000000000,0.0000000420000000,0.0000011600000000,0.0000525000000000,0.0000910000000000,0.0000525000000000,0.0000041800000000,-0.0001010000000000,-0.0002420000000000,0.0003320000000000,-0.0012600000000000,0.0000291000000000,0.0007860000000000,0.0358000000000000,0.0414000000000000
4500.0000000000000000,-0.0000482000000000,-0.0000474000000000,-0.0000496000000000,0.0000000414000000,0.0000011400000000,0.0000526000000000,0.0000911000000000,0.0000526000000000,0.0000036400000000,-0.0001020000000000,-0.0002400000000000,0.0003360000000000,-0.0012800000000000,0.0000300000000000,0.0008080000000000,0.0373000000000000,0.0431000000000000
4600.0000000000000000,-0.0000496000000000,-0.0000488000000000,-0.0000510000000000,0.0000000428000000,0.0000011800000000,0.0000526000000000,0.0000912000000000,0.0000527000000000,0.0000023600000000,-0.0001030000000000,-0.0002350000000000,0.0003460000000000,-0.0013300000000000,0.0000326000000000,0.0008650000000000,0.0388000000000000,0.0448000000000000
4700.0000000000000000,-0.0000498000000000,-0.0000490000000000,-0.0000511000000000,0.0000000405000000,0.0000011600000000,0.0000527000000000,0.0000913000000000,0.0000527000000000,0.0000022500000000,-0.0001030000000000,-0.0002270000000000,0.0003470000000000,-0.0013400000000000,0.0000325000000000,0.0008820000000000,0.0404000000000000,0.0466000000000000
4800.0000000000000000,-0.0000508000000000,-0.0000500000000000,-0.0000521000000000,0.0000000396000000,0.0000011400000000,0.0000528000000000,0.0000915000000000,0.0000528000000000,0.0000013800000000,-0.0001040000000000,-0.0002140000000000,0.0003540000000000,-0.0013900000000000,0.0000335000000000,0.0009070000000000,0.0420000000000000,0.0485000000000000
4900.0000000000000000,-0.0000518000000000,-0.0000510000000000,-0.0000531000000000,0.0000000410000000,0.0000011500000000,0.0000529000000000,0.0000916000000000,0.0000529000000000,0.0000004380000000,-0.0001050000000000,-0.0002000000000000,0.0003610000000000,-0.0014300000000000,0.0000362000000000,0.0009450000000000,0.0436000000000000,0.0503000000000000
5000.0000000000000000,-0.0000522000000000,-0.0000514000000000,-0.0000533000000000,0.0000000384000000,0.0000011000000000,0.0000529000000000,0.0000917000000000,0.0000529000000000,0.0000002150000000,-0.0001060000000000,-0.0001870000000000,0.0003630000000000,-0.0014600000000000,0.0000357000000000,0.0009510000000000,0.0451000000000000,0.0521000000000000
5100.0000000000000000,-0.0000529000000000,-0.0000521000000000,-0.0000540000000000,0.0000000385000000,0.0000011300000000,0.0000530000000000,0.0000918000000000,0.0000530000000000,-0.0000004030000000,-0.0001060000000000,-0.0001690000000000,0.0003690000000000,-0.0015000000000000,0.0000380000000000,0.0010000000000000,0.0468000000000000,0.0540000000000000
5200.0000000000000000,-0.0000535000000000,-0.0000528000000000,-0.0000546000000000,0.0000000384000000,0.0000011300000000,0.0000531000000000,0.0000920000000000,0.0000531000000000,-0.0000009630000000,-0.0001070000000000,-0.0001510000000000,0.0003730000000000,-0.0015400000000000,0.0000400000000000,0.0010300000000000,0.0484000000000000,0.0559000000000000
5300.0000000000000000,-0.0000541000000000,-0.0000533000000000,-0.0000550000000000,0.0000000369000000,0.0000011200000000,0.0000532000000000,0.0000921000000000,0.0000532000000000,-0.0000013700000000,-0.0001080000000000,-0.0001290000000000,0.0003770000000000,-0.0015700000000000,0.0000409000000000,0.0010600000000000,0.0500000000000000,0.0578000000000000
5400.0000000000000000,-0.0000544000000000,-0.0000537000000000,-0.0000553000000000,0.0000000358000000,0.0000011400000000,0.0000532000000000,0.0000922000000000,0.0000532000000000,-0.0000016100000000,-0.0001080000000000,-0.0001060000000000,0.0003800000000000,-0.0016100000000000,0.0000429000000000,0.0011100000000000,0.0517000000000000,0.0598000000000000
5500.0000000000000000,-0.0000554000000000,-0.0000546000000000,-0.0000562000000000,0.0000000358000000,0.0000011300000000,0.0000533000000000,0.0000924000000000,0.0000533000000000,-0.0000024300000000,-0.0001090000000000,-0.0000787000000000,0.0003860000000000,-0.0016600000000000,0.0000451000000000,0.0011400000000000,0.0534000000000000,0.0617000000000000
5600.0000000000000000,-0.0000557000000000,-0.0000549000000000,-0.0000564000000000,0.0000000347000000,0.0000011200000000,0.0000534000000000,0.0000925000000000,0.0000534000000000,-0.0000026200000000,-0.0001090000000000,-0.0000461000000000,0.0003880000000000,-0.0017100000000000,0.0000465000000000,0.0011700000000000,0.0552000000000000,0.0638000000000000
5700.0000000000000000,-0.0000565000000000,-0.0000558000000000,-0.0000572000000000,0.0000000334000000,0.0000011000000000,0.0000535000000000,0.0000926000000000,0.0000535000000000,-0.0000033700000000,-0.0001100000000000,-0.0000090400000000,0.0003940000000000,-0.0017700000000000,0.0000480000000000,0.0011900000000000,0.0570000000000000,0.0658000000000000
5800.0000000000000000,-0.0000573000000000,-0.0000566000000000,-0.0000579000000000,0.0000000325000000,0.0000010800000000,0.0000535000000000,0.0000928000000000,0.0000536000000000,-0.0000040400000000,-0.0001110000000000,0.0000334000000000,0.0004000000000000,-0.0018400000000000,0.0000497000000000,0.0012200000000000,0.0588000000000000,0.0679000000000000
5900.0000000000000000,-0.0000580000000000,-0.0000573000000000,-0.0000585000000000,0.0000000318000000,0.0000010500000000,0.0000536000000000,0.0000929000000000,0.0000536000000000,-0.0000046600000000,-0.0001120000000000,0.0000760000000000,0.0004040000000000,-0.0019000000000000,0.0000509000000000,0.0012300000000000,0.0606000000000000,0.0701000000000000
6000.0000000000000000,-0.0000590000000000,-0.0000582000000000,-0.0000594000000000,0.0000000310000000,0.0000010400000000,0.0000537000000000,0.0000930000000000,0.0000537000000000,-0.0000055200000000,-0.0001130000000000,0.0001280000000000,0.0004110000000000,-0.0019800000000000,0.0000535000000000,0.0012600000000000,0.0626000000000000,0.0723000000000000
6100.0000000000000000,-0.0000599000000000,-0.0000591000000000,-0.0000603000000000,0.0000000301000000,0.0000010300000000,0.0000538000000000,0.0000932000000000,0.0000538000000000,-0.0000063200000000,-0.0001140000000000,0.0001830000000000,0.0004170000000000,-0.0020600000000000,0.0000558000000000,0.0013000000000000,0.0645000000000000,0.0745000000000000
6200.0000000000000000,-0.0000608000000000,-0.0000600000000000,-0.0000610000000000,0.0000000295000000,0.0000010300000000,0.0000539000000000,0.0000933000000000,0.0000539000000000,-0.0000070200000000,-0.0001150000000000,0.0002400000000000,0.0004230000000000,-0.0021500000000000,0.0000585000000000,0.0013300000000000,0.0665000000000000,0.0768000000000000
6300.0000000000000000,-0.0000617000000000,-0.0000608000000000,-0.0000618000000000,0.0000000290000000,0.0000010100000000,0.0000540000000000,0.0000935000000000,0.0000540000000000,-0.0000077700000000,-0.0001160000000000,0.0003010000000000,0.0004300000000000,-0.0022400000000000,0.0000610000000000,0.0013500000000000,0.0684000000000000,0.0790000000000000
6400.0000000000000000,-0.0000626000000000,-0.0000617000000000,-0.0000626000000000,0.0000000275000000,0.0000009910000000,0.0000541000000000,0.0000937000000000,0.0000541000000000,-0.0000085200000000,-0.0001170000000000,0.0003710000000000,0.0004360000000000,-0.0023300000000000,0.0000630000000000,0.0013800000000000,0.0705000000000000,0.0814000000000000
6500.0000000000000000,-0.0000634000000000,-0.0000625000000000,-0.0000634000000000,0.0000000271000000,0.0000009950000000,0.0000542000000000,0.0000939000000000,0.0000542000000000,-0.0000092000000000,-0.0001180000000000,0.0004470000000000,0.0004410000000000,-0.0024300000000000,0.0000663000000000,0.0014200000000000,0.0725000000000000,0.0838000000000000
6600.0000000000000000,-0.0000644000000000,-0.0000635000000000,-0.0000642000000000,0.0000000261000000,0.0000009500000000,0.0000543000000000,0.0000941000000000,0.0000543000000000,-0.0000100000000000,-0.0001190000000000,0.0005270000000000,0.0004470000000000,-0.0025400000000000,0.0000676000000000,0.0014200000000000,0.0746000000000000,0.0862000000000000
6700.0000000000000000,-0.0000653000000000,-0.0000644000000000,-0.0000651000000000,0.0000000250000000,0.0000009110000000,0.0000544000000000,0.0000942000000000,0.0000544000000000,-0.0000108000000000,-0.0001200000000000,0.0006170000000000,0.0004540000000000,-0.0026600000000000,0.0000694000000000,0.0014400000000000,0.0767000000000000,0.0886000000000000
6800.0000000000000000,-0.0000661000000000,-0.0000652000000000,-0.0000658000000000,0.0000000244000000,0.0000009040000000,0.0000545000000000,0.0000944000000000,0.0000545000000000,-0.0000115000000000,-0.0001200000000000,0.0007110000000000,0.0004590000000000,-0.0027800000000000,0.0000724000000000,0.0014700000000000,0.0788000000000000,0.0911000000000000
6900.0000000000000000,-0.0000665000000000,-0.0000655000000000,-0.0000661000000000,0.0000000217000000,0.0000008800000000,0.0000546000000000,0.0000946000000000,0.0000546000000000,-0.0000117000000000,-0.0001210000000000,0.0008050000000000,0.0004610000000000,-0.0028800000000000,0.0000728000000000,0.0014900000000000,0.0809000000000000,0.0934000000000000
7000.0000000000000000,-0.0000670000000000,-0.0000660000000000,-0.0000664000000000,0.0000000210000000,0.0000008580000000,0.0000547000000000,0.0000947000000000,0.0000547000000000,-0.0000120000000000,-0.0001210000000000,0.0008980000000000,0.0004640000000000,-0.0029900000000000,0.0000758000000000,0.0015000000000000,0.0829000000000000,0.0958000000000000
7100.0000000000000000,-0.0000674000000000,-0.0000664000000000,-0.0000668000000000,0.0000000206000000,0.0000008680000000,0.0000548000000000,0.0000949000000000,0.0000548000000000,-0.0000123000000000,-0.0001220000000000,0.0010000000000000,0.0004680000000000,-0.0031100000000000,0.0000806000000000,0.0015400000000000,0.0851000000000000,0.0983000000000000
7200.0000000000000000,-0.0000679000000000,-0.0000668000000000,-0.0000671000000000,0.0000000195000000,0.0000008890000000,0.0000549000000000,0.0000951000000000,0.0000549000000000,-0.0000126000000000,-0.0001220000000000,0.0011200000000000,0.0004710000000000,-0.0032400000000000,0.0000853000000000,0.0015900000000000,0.0873000000000000,0.1010000000000000
7300.0000000000000000,-0.0000686000000000,-0.0000675000000000,-0.0000677000000000,0.0000000182000000,0.0000008410000000,0.0000550000000000,0.0000953000000000,0.0000550000000000,-0.0000132000000000,-0.0001230000000000,0.0012500000000000,0.0004760000000000,-0.0033900000000000,0.0000871000000000,0.0015900000000000,0.0896000000000000,0.1030000000000000
7400.0000000000000000,-0.0000692000000000,-0.0000681000000000,-0.0000682000000000,0.0000000168000000,0.0000008050000000,0.0000551000000000,0.0000954000000000,0.0000551000000000,-0.0000136000000000,-0.0001240000000000,0.0013900000000000,0.0004800000000000,-0.0035500000000000,0.0000884000000000,0.0016100000000000,0.0919000000000000,0.1060000000000000
7500.0000000000000000,-0.0000699000000000,-0.0000687000000000,-0.0000688000000000,0.0000000159000000,0.0000007660000000,0.0000552000000000,0.0000957000000000,0.0000552000000000,-0.0000141000000000,-0.0001250000000000,0.0015500000000000,0.0004840000000000,-0.0037300000000000,0.0000915000000000,0.0016200000000000,0.0945000000000000,0.1090000000000000
7600.0000000000000000,-0.0000706000000000,-0.0000694000000000,-0.0000693000000000,0.0000000143000000,0.0000007200000000,0.0000553000000000,0.0000958000000000,0.0000553000000000,-0.0000147000000000,-0.0001250000000000,0.0017400000000000,0.0004880000000000,-0.0039400000000000,0.0000933000000000,0.0016300000000000,0.0973000000000000,0.1120000000000000
7700.0000000000000000,-0.0000715000000000,-0.0000702000000000,-0.0000700000000000,0.0000000125000000,0.0000006590000000,0.0000555000000000,0.0000961000000000,0.0000555000000000,-0.0000153000000000,-0.0001260000000000,0.0019900000000000,0.0004940000000000,-0.0042200000000000,0.0000964000000000,0.0016300000000000,0.1010000000000000,0.1160000000000000
7800.0000000000000000,-0.0000724000000000,-0.0000711000000000,-0.0000709000000000,0.0000000126000000,0.0000006170000000,0.0000556000000000,0.0000964000000000,0.0000557000000000,-0.0000160000000000,-0.0001270000000000,0.0022600000000000,0.0005000000000000,-0.0045100000000000,0.0001020000000000,0.0016400000000000,0.1040000000000000,0.1200000000000000
7900.0000000000000000,-0.0000735000000000,-0.0000721000000000,-0.0000718000000000,0.0000000110000000,0.0000006050000000,0.0000558000000000,0.0000967000000000,0.0000558000000000,-0.0000168000000000,-0.0001280000000000,0.0025400000000000,0.0005070000000000,-0.0048200000000000,0.0001070000000000,0.0016700000000000,0.1070000000000000,0.1240000000000000
8000.0000000000000000,-0.0000743000000000,-0.0000728000000000,-0.0000724000000000,0.0000000099200000,0.0000005830000000,0.0000560000000000,0.0000969000000000,0.0000560000000000,-0.0000174000000000,-0.0001290000000000,0.0028200000000000,0.0005130000000000,-0.0051300000000000,0.0001120000000000,0.0016900000000000,0.1100000000000000,0.1280000000000000
8100.0000000000000000,-0.0000750000000000,-0.0000736000000000,-0.0000731000000000,0.0000000089200000,0.0000005460000000,0.0000561000000000,0.0000972000000000,0.0000561000000000,-0.0000179000000000,-0.0001300000000000,0.0031100000000000,0.0005180000000000,-0.0054400000000000,0.0001160000000000,0.0017000000000000,0.1140000000000000,0.1310000000000000
8200.0000000000000000,-0.0000754000000000,-0.0000739000000000,-0.0000733000000000,0.0000000075400000,0.0000004910000000,0.0000562000000000,0.0000975000000000,0.0000563000000000,-0.0000181000000000,-0.0001310000000000,0.0034200000000000,0.0005200000000000,-0.0057600000000000,0.0001190000000000,0.0016900000000000,0.1170000000000000,0.1350000000000000
8300.0000000000000000,-0.0000757000000000,-0.0000741000000000,-0.0000734000000000,0.0000000055200000,0.0000004420000000,0.0000564000000000,0.0000977000000000,0.0000564000000000,-0.0000182000000000,-0.0001310000000000,0.0037300000000000,0.0005210000000000,-0.0060800000000000,0.0001200000000000,0.0016900000000000,0.1200000000000000,0.1390000000000000
8400.0000000000000000,-0.0000761000000000,-0.0000745000000000,-0.0000736000000000,0.0000000038300000,0.0000004090000000,0.0000565000000000,0.0000980000000000,0.0000566000000000,-0.0000183000000000,-0.0001310000000000,0.0040500000000000,0.0005230000000000,-0.0064000000000000,0.0001220000000000,0.0016900000000000,0.1230000000000000,0.1420000000000000
8500.0000000000000000,-0.0000764000000000,-0.0000747000000000,-0.0000737000000000,0.0000000025200000,0.0000003610000000,0.0000567000000000,0.0000982000000000,0.0000567000000000,-0.0000183000000000,-0.0001320000000000,0.0043800000000000,0.0005240000000000,-0.0067400000000000,0.0001240000000000,0.0016800000000000,0.1260000000000000,0.1460000000000000
8600.0000000000000000,-0.0000770000000000,-0.0000752000000000,-0.0000742000000000,0.0000000015500000,0.0000003490000000,0.0000568000000000,0.0000985000000000,0.0000568000000000,-0.0000187000000000,-0.0001320000000000,0.0047300000000000,0.0005280000000000,-0.0071100000000000,0.0001290000000000,0.0017000000000000,0.1290000000000000,0.1500000000000000
8700.0000000000000000,-0.0000776000000000,-0.0000758000000000,-0.0000746000000000,0.0000000005160000,0.0000003520000000,0.0000570000000000,0.0000987000000000,0.0000570000000000,-0.0000191000000000,-0.0001330000000000,0.0051000000000000,0.0005320000000000,-0.0074900000000000,0.0001350000000000,0.0017200000000000,0.1330000000000000,0.1530000000000000
8800.0000000000000000,-0.0000784000000000,-0.0000765000000000,-0.0000753000000000,-0.0000000008200000,0.0000003450000000,0.0000571000000000,0.0000989000000000,0.0000571000000000,-0.0000198000000000,-0.0001340000000000,0.0054900000000000,0.0005380000000000,-0.0079000000000000,0.0001400000000000,0.0017300000000000,0.1360000000000000,0.1570000000000000
8900.0000000000000000,-0.0000793000000000,-0.0000774000000000,-0.0000761000000000,-0.0000000012900000,0.0000003290000000,0.0000572000000000,0.0000991000000000,0.0000572000000000,-0.0000205000000000,-0.0001350000000000,0.0058900000000000,0.0005440000000000,-0.0083400000000000,0.0001460000000000,0.0017400000000000,0.1390000000000000,0.1610000000000000
9000.0000000000000000,-0.0000802000000000,-0.0000782000000000,-0.0000769000000000,-0.0000000024800000,0.0000003060000000,0.0000574000000000,0.0000995000000000,0.0000574000000000,-0.0000211000000000,-0.0001360000000000,0.0063200000000000,0.0005500000000000,-0.0087900000000000,0.0001480000000000,0.0017400000000000,0.1430000000000000,0.1650000000000000
9100.0000000000000000,-0.0000811000000000,-0.0000790000000000,-0.0000776000000000,-0.0000000036100000,0.0000002810000000,0.0000576000000000,0.0000998000000000,0.0000576000000000,-0.0000217000000000,-0.0001370000000000,0.0067600000000000,0.0005550000000000,-0.0092500000000000,0.0001510000000000,0.0017400000000000,0.1460000000000000,0.1690000000000000
9200.0000000000000000,-0.0000818000000000,-0.0000797000000000,-0.0000782000000000,-0.0000000045100000,0.0000002400000000,0.0000577000000000,0.0001000000000000,0.0000578000000000,-0.0000222000000000,-0.0001380000000000,0.0071900000000000,0.0005590000000000,-0.0097100000000000,0.0001510000000000,0.0017300000000000,0.1490000000000000,0.1720000000000000
9300.0000000000000000,-0.0000825000000000,-0.0000803000000000,-0.0000787000000000,-0.0000000050600000,0.0000002210000000,0.0000579000000000,0.0001000000000000,0.0000579000000000,-0.0000227000000000,-0.0001390000000000,0.0076400000000000,0.0005640000000000,-0.0102000000000000,0.0001540000000000,0.0017400000000000,0.1520000000000000,0.1760000000000000
9400.0000000000000000,-0.0000830000000000,-0.0000807000000000,-0.0000791000000000,-0.0000000062400000,0.0000002160000000,0.0000580000000000,0.0001010000000000,0.0000581000000000,-0.0000230000000000,-0.0001390000000000,0.0080800000000000,0.0005670000000000,-0.0106000000000000,0.0001590000000000,0.0017500000000000,0.1550000000000000,0.1800000000000000
9500.0000000000000000,-0.0000834000000000,-0.0000811000000000,-0.0000793000000000,-0.0000000074300000,0.0000002180000000,0.0000582000000000,0.0001010000000000,0.0000582000000000,-0.0000232000000000,-0.0001400000000000,0.0085200000000000,0.0005690000000000,-0.0111000000000000,0.0001640000000000,0.0017600000000000,0.1590000000000000,0.1830000000000000
9600.0000000000000000,-0.0000838000000000,-0.0000814000000000,-0.0000795000000000,-0.0000000084200000,0.0000002340000000,0.0000583000000000,0.0001010000000000,0.0000583000000000,-0.0000233000000000,-0.0001400000000000,0.0089900000000000,0.0005710000000000,-0.0116000000000000,0.0001710000000000,0.0017800000000000,0.1620000000000000,0.1870000000000000
9700.0000000000000000,-0.0000841000000000,-0.0000816000000000,-0.0000797000000000,-0.0000000071300000,0.0000002310000000,0.0000585000000000,0.0001010000000000,0.0000585000000000,-0.0000234000000000,-0.0001400000000000,0.0094500000000000,0.0005760000000000,-0.0120000000000000,0.0001770000000000,0.0017900000000000,0.1650000000000000,0.1910000000000000
9800.0000000000000000,-0.0000843000000000,-0.0000818000000000,-0.0000798000000000,-0.0000000104000000,0.0000002130000000,0.0000586000000000,0.0001020000000000,0.0000586000000000,-0.0000234000000000,-0.0001410000000000,0.0099600000000000,0.0005750000000000,-0.0125000000000000,0.0001780000000000,0.0017900000000000,0.1680000000000000,0.1940000000000000
9900.0000000000000000,-0.0000857000000000,-0.0000831000000000,-0.0000810000000000,-0.0000000104000000,0.0000001950000000,0.0000587000000000,0.0001020000000000,0.0000588000000000,-0.0000246000000000,-0.0001420000000000,0.0105000000000000,0.0005840000000000,-0.0131000000000000,0.0001810000000000,0.0017800000000000,0.1710000000000000,0.1980000000000000
10000.0000000000000000,-0.0000861000000000,-0.0000834000000000,-0.0000813000000000,-0.0000000115000000,0.0000001680000000,0.0000589000000000,0.0001020000000000,0.0000589000000000,-0.0000248000000000,-0.0001430000000000,0.0111000000000000,0.0005860000000000,-0.0137000000000000,0.0001820000000000,0.0017800000000000,0.1740000000000000,0.2020000000000000
10100.0000000000000000,-0.0000873000000000,-0.0000845000000000,-0.0000823000000000,-0.0000000122000000,0.0000001580000000,0.0000591000000000,0.0001020000000000,0.0000591000000000,-0.0000257000000000,-0.0001440000000000,0.0116000000000000,0.0005930000000000,-0.0143000000000000,0.0001850000000000,0.0017800000000000,0.1780000000000000,0.2060000000000000
10200.0000000000000000,-0.0000878000000000,-0.0000849000000000,-0.0000827000000000,-0.0000000129000000,0.0000001510000000,0.0000592000000000,0.0001030000000000,0.0000593000000000,-0.0000260000000000,-0.0001440000000000,0.0122000000000000,0.0005960000000000,-0.0149000000000000,0.0001890000000000,0.0017900000000000,0.1810000000000000,0.2100000000000000
10300.0000000000000000,-0.0000889000000000,-0.0000860000000000,-0.0000837000000000,-0.0000000133000000,0.0000001670000000,0.0000594000000000,0.0001030000000000,0.0000594000000000,-0.0000269000000000,-0.0001460000000000,0.0128000000000000,0.0006040000000000,-0.0155000000000000,0.0001970000000000,0.0018100000000000,0.1840000000000000,0.2130000000000000
10400.0000000000000000,-0.0000892000000000,-0.0000863000000000,-0.0000838000000000,-0.0000000142000000,0.0000001660000000,0.0000595000000000,0.0001030000000000,0.0000596000000000,-0.0000270000000000,-0.0001460000000000,0.0134000000000000,0.0006060000000000,-0.0161000000000000,0.0002020000000000,0.0018100000000000,0.1880000000000000,0.2170000000000000
10500.0000000000000000,-0.0000903000000000,-0.0000872000000000,-0.0000847000000000,-0.0000000142000000,0.0000001730000000,0.0000596000000000,0.0001030000000000,0.0000597000000000,-0.0000278000000000,-0.0001470000000000,0.0140000000000000,0.0006130000000000,-0.0167000000000000,0.0002080000000000,0.0018200000000000,0.1910000000000000,0.2210000000000000
10600.0000000000000000,-0.0000903000000000,-0.0000872000000000,-0.0000846000000000,-0.0000000155000000,0.0000001710000000,0.0000598000000000,0.0001040000000000,0.0000599000000000,-0.0000276000000000,-0.0001470000000000,0.0145000000000000,0.0006120000000000,-0.0173000000000000,0.0002120000000000,0.0018300000000000,0.1940000000000000,0.2240000000000000
10700.0000000000000000,-0.0000910000000000,-0.0000878000000000,-0.0000851000000000,-0.0000000159000000,0.0000001530000000,0.0000599000000000,0.0001040000000000,0.0000600000000000,-0.0000281000000000,-0.0001480000000000,0.0151000000000000,0.0006160000000000,-0.0179000000000000,0.0002130000000000,0.0018300000000000,0.1970000000000000,0.2280000000000000
10800.0000000000000000,-0.0000910000000000,-0.0000877000000000,-0.0000849000000000,-0.0000000166000000,0.0000001290000000,0.0000601000000000,0.0001040000000000,0.0000602000000000,-0.0000278000000000,-0.0001480000000000,0.0157000000000000,0.0006160000000000,-0.0185000000000000,0.0002140000000000,0.0018200000000000,0.2000000000000000,0.2320000000000000
10900.0000000000000000,-0.0000918000000000,-0.0000884000000000,-0.0000855000000000,-0.0000000168000000,0.0000001140000000,0.0000602000000000,0.0001040000000000,0.0000603000000000,-0.0000283000000000,-0.0001490000000000,0.0164000000000000,0.0006200000000000,-0.0191000000000000,0.0002150000000000,0.0018200000000000,0.2030000000000000,0.2350000000000000
11000.0000000000000000,-0.0000920000000000,-0.0000886000000000,-0.0000856000000000,-0.0000000175000000,0.0000001070000000,0.0000604000000000,0.0001050000000000,0.0000604000000000,-0.0000284000000000,-0.0001490000000000,0.0170000000000000,0.0006220000000000,-0.0198000000000000,0.0002190000000000,0.0018200000000000,0.2060000000000000,0.2390000000000000
11100.0000000000000000,-0.0000930000000000,-0.0000895000000000,-0.0000865000000000,-0.0000000179000000,0.0000001240000000,0.0000605000000000,0.0001050000000000,0.0000606000000000,-0.0000292000000000,-0.0001500000000000,0.0176000000000000,0.0006280000000000,-0.0205000000000000,0.0002270000000000,0.0018400000000000,0.2090000000000000,0.2420000000000000
11200.0000000000000000,-0.0000938000000000,-0.0000902000000000,-0.0000871000000000,-0.0000000194000000,0.0000001310000000,0.0000606000000000,0.0001050000000000,0.0000607000000000,-0.0000298000000000,-0.0001510000000000,0.0183000000000000,0.0006330000000000,-0.0212000000000000,0.0002320000000000,0.0018500000000000,0.2120000000000000,0.2460000000000000
11300.0000000000000000,-0.0000944000000000,-0.0000908000000000,-0.0000876000000000,-0.0000000208000000,0.0000001410000000,0.0000608000000000,0.0001050000000000,0.0000609000000000,-0.0000301000000000,-0.0001520000000000,0.0190000000000000,0.0006370000000000,-0.0219000000000000,0.0002380000000000,0.0018600000000000,0.2150000000000000,0.2500000000000000
11400.0000000000000000,-0.0000951000000000,-0.0000914000000000,-0.0000882000000000,-0.0000000227000000,0.0000001350000000,0.0000609000000000,0.0001060000000000,0.0000610000000000,-0.0000306000000000,-0.0001530000000000,0.0197000000000000,0.0006410000000000,-0.0226000000000000,0.0002410000000000,0.0018600000000000,0.2180000000000000,0.2530000000000000
11500.0000000000000000,-0.0000958000000000,-0.0000920000000000,-0.0000887000000000,-0.0000000247000000,0.0000001310000000,0.0000610000000000,0.0001060000000000,0.0000611000000000,-0.0000311000000000,-0.0001530000000000,0.0203000000000000,0.0006450000000000,-0.0232000000000000,0.0002450000000000,0.0018600000000000,0.2210000000000000,0.2570000000000000
11600.0000000000000000,-0.0000959000000000,-0.0000921000000000,-0.0000886000000000,-0.0000000268000000,0.0000001240000000,0.0000611000000000,0.0001060000000000,0.0000613000000000,-0.0000310000000000,-0.0001540000000000,0.0210000000000000,0.0006450000000000,-0.0239000000000000,0.0002470000000000,0.0018600000000000,0.2240000000000000,0.2600000000000000
11700.0000000000000000,-0.0000967000000000,-0.0000928000000000,-0.0000893000000000,-0.0000000289000000,0.0000001100000000,0.0000613000000000,0.0001060000000000,0.0000615000000000,-0.0000316000000000,-0.0001540000000000,0.0217000000000000,0.0006500000000000,-0.0247000000000000,0.0002480000000000,0.0018600000000000,0.2270000000000000,0.2630000000000000
11800.0000000000000000,-0.0000974000000000,-0.0000934000000000,-0.0000898000000000,-0.0000000308000000,0.0000001020000000,0.0000615000000000,0.0001070000000000,0.0000616000000000,-0.0000320000000000,-0.0001550000000000,0.0224000000000000,0.0006540000000000,-0.0254000000000000,0.0002490000000000,0.0018600000000000,0.2300000000000000,0.2670000000000000
11900.0000000000000000,-0.0000983000000000,-0.0000942000000000,-0.0000906000000000,-0.0000000328000000,0.0000001010000000,0.0000616000000000,0.0001070000000000,0.0000617000000000,-0.0000327000000000,-0.0001560000000000,0.0232000000000000,0.0006590000000000,-0.0261000000000000,0.0002500000000000,0.0018600000000000,0.2330000000000000,0.2700000000000000
12000.0000000000000000,-0.0000988000000000,-0.0000947000000000,-0.0000910000000000,-0.0000000348000000,0.0000000965000000,0.0000617000000000,0.0001070000000000,0.0000619000000000,-0.0000330000000000,-0.0001570000000000,0.0239000000000000,0.0006620000000000,-0.0269000000000000,0.0002510000000000,0.0018600000000000,0.2360000000000000,0.2740000000000000
12100.0000000000000000,-0.0000994000000000,-0.0000952000000000,-0.0000915000000000,-0.0000000365000000,0.0000001000000000,0.0000619000000000,0.0001070000000000,0.0000620000000000,-0.0000334000000000,-0.0001570000000000,0.0245000000000000,0.0006670000000000,-0.0275000000000000,0.0002540000000000,0.0018700000000000,0.2380000000000000,0.2770000000000000
12200.0000000000000000,-0.0000992000000000,-0.0000949000000000,-0.0000911000000000,-0.0000000385000000,0.0000001030000000,0.0000620000000000,0.0001080000000000,0.0000621000000000,-0.0000331000000000,-0.0001570000000000,0.0249000000000000,0.0006730000000000,-0.0279000000000000,0.0002550000000000,0.0018700000000000,0.2400000000000000,0.2790000000000000
12300.0000000000000000,-0.0000971000000000,-0.0000928000000000,-0.0000888000000000,-0.0000000384000000,0.0000000796000000,0.0000619000000000,0.0001070000000000,0.0000620000000000,-0.0000310000000000,-0.0001550000000000,0.0245000000000000,0.0006730000000000,-0.0275000000000000,0.0002530000000000,0.0018600000000000,0.2400000000000000,0.2790000000000000
12400.0000000000000000,-0.0000947000000000,-0.0000903000000000,-0.0000860000000000,-0.0000000355000000,-0.0000000291000000,0.0000619000000000,0.0001080000000000,0.0000621000000000,-0.0000283000000000,-0.0001520000000000,0.0239000000000000,0.0006460000000000,-0.0268000000000000,0.0002410000000000,0.0018000000000000,0.2410000000000000,0.2790000000000000
12500.0000000000000000,-0.0000961000000000,-0.0000915000000000,-0.0000872000000000,-0.0000000355000000,-0.0000000456000000,0.0000620000000000,0.0001080000000000,0.0000621000000000,-0.0000295000000000,-0.0001540000000000,0.0237000000000000,0.0006360000000000,-0.0266000000000000,0.0002390000000000,0.0017900000000000,0.2410000000000000,0.2800000000000000
12600.0000000000000000,-0.0000977000000000,-0.0000931000000000,-0.0000888000000000,-0.0000000379000000,-0.0000000017300000,0.0000620000000000,0.0001080000000000,0.0000622000000000,-0.0000311000000000,-0.0001550000000000,0.0239000000000000,0.0006460000000000,-0.0268000000000000,0.0002450000000000,0.0018100000000000,0.2420000000000000,0.2810000000000000
12700.0000000000000000,-0.0000989000000000,-0.0000942000000000,-0.0000899000000000,-0.0000000400000000,0.0000000194000000,0.0000621000000000,0.0001080000000000,0.0000622000000000,-0.0000321000000000,-0.0001570000000000,0.0242000000000000,0.0006480000000000,-0.0271000000000000,0.0002480000000000,0.0018300000000000,0.2440000000000000,0.2830000000000000
12800.0000000000000000,-0.0000996000000000,-0.0000948000000000,-0.0000904000000000,-0.0000000412000000,0.0000000289000000,0.0000622000000000,0.0001080000000000,0.0000624000000000,-0.0000326000000000,-0.0001570000000000,0.0247000000000000,0.0006510000000000,-0.0277000000000000,0.0002500000000000,0.0018300000000000,0.2460000000000000,0.2860000000000000
12900.0000000000000000,-0.0000999000000000,-0.0000951000000000,-0.0000905000000000,-0.0000000417000000,0.0000000365000000,0.0000623000000000,0.0001080000000000,0.0000625000000000,-0.0000327000000000,-0.0001580000000000,0.0255000000000000,0.0006550000000000,-0.0285000000000000,0.0002530000000000,0.0018300000000000,0.2490000000000000,0.2900000000000000
13000.0000000000000000,-0.0001010000000000,-0.0000957000000000,-0.0000911000000000,-0.0000000420000000,0.0000000515000000,0.0000625000000000,0.0001090000000000,0.0000627000000000,-0.0000332000000000,-0.0001590000000000,0.0264000000000000,0.0006600000000000,-0.0294000000000000,0.0002600000000000,0.0018400000000000,0.2530000000000000,0.2940000000000000
13100.0000000000000000,-0.0001010000000000,-0.0000962000000000,-0.0000916000000000,-0.0000000435000000,0.0000000708000000,0.0000627000000000,0.0001090000000000,0.0000628000000000,-0.0000336000000000,-0.0001590000000000,0.0273000000000000,0.0006650000000000,-0.0303000000000000,0.0002650000000000,0.0018600000000000,0.2560000000000000,0.2970000000000000
13200.0000000000000000,-0.0001020000000000,-0.0000966000000000,-0.0000919000000000,-0.0000000459000000,0.0000000858000000,0.0000628000000000,0.0001090000000000,0.0000630000000000,-0.0000338000000000,-0.0001600000000000,0.0280000000000000,0.0006710000000000,-0.0311000000000000,0.0002680000000000,0.0018700000000000,0.2590000000000000,0.3010000000000000
13300.0000000000000000,-0.0001020000000000,-0.0000972000000000,-0.0000924000000000,-0.0000000470000000,0.0000000921000000,0.0000629000000000,0.0001090000000000,0.0000631000000000,-0.0000343000000000,-0.0001610000000000,0.0288000000000000,0.0006750000000000,-0.0319000000000000,0.0002710000000000,0.0018700000000000,0.2620000000000000,0.3040000000000000
13400.0000000000000000,-0.0001030000000000,-0.0000982000000000,-0.0000933000000000,-0.0000000480000000,0.0000001120000000,0.0000631000000000,0.0001100000000000,0.0000633000000000,-0.0000351000000000,-0.0001620000000000,0.0296000000000000,0.0006780000000000,-0.0327000000000000,0.0002770000000000,0.0018800000000000,0.2640000000000000,0.3070000000000000
13500.0000000000000000,-0.0001040000000000,-0.0000986000000000,-0.0000936000000000,-0.0000000489000000,0.0000001180000000,0.0000632000000000,0.0001100000000000,0.0000634000000000,-0.0000354000000000,-0.0001620000000000,0.0304000000000000,0.0006830000000000,-0.0335000000000000,0.0002800000000000,0.0018900000000000,0.2670000000000000,0.3110000000000000
13600.0000000000000000,-0.0001030000000000,-0.0000980000000000,-0.0000929000000000,-0.0000000516000000,-0.0000000285000000,0.0000631000000000,0.0001100000000000,0.0000633000000000,-0.0000348000000000,-0.0001610000000000,0.0312000000000000,0.0006740000000000,-0.0343000000000000,0.0002660000000000,0.0018100000000000,0.2700000000000000,0.3140000000000000
13700.0000000000000000,-0.0001060000000000,-0.0001000000000000,-0.0000952000000000,-0.0000000569000000,0.0000001010000000,0.0000634000000000,0.0001100000000000,0.0000636000000000,-0.0000370000000000,-0.0001640000000000,0.0320000000000000,0.0006940000000000,-0.0352000000000000,0.0002700000000000,0.0018900000000000,0.2730000000000000,0.3170000000000000
13800.0000000000000000,-0.0001060000000000,-0.0001000000000000,-0.0000953000000000,-0.0000000488000000,0.0000000834000000,0.0000636000000000,0.0001110000000000,0.0000638000000000,-0.0000369000000000,-0.0001640000000000,0.0328000000000000,0.0006980000000000,-0.0360000000000000,0.0002920000000000,0.0018900000000000,0.2750000000000000,0.3210000000000000
13900.0000000000000000,-0.0001080000000000,-0.0001020000000000,-0.0000972000000000,-0.0000000538000000,0.0000002640000000,0.0000637000000000,0.0001110000000000,0.0000639000000000,-0.0000387000000000,-0.0001670000000000,0.0337000000000000,0.0007110000000000,-0.0369000000000000,0.0003300000000000,0.0020000000000000,0.2780000000000000,0.3240000000000000
14000.0000000000000000,-0.0001070000000000,-0.0001010000000000,-0.0000958000000000,-0.0000000576000000,0.0000002610000000,0.0000638000000000,0.0001110000000000,0.0000641000000000,-0.0000373000000000,-0.0001650000000000,0.0345000000000000,0.0007010000000000,-0.0377000000000000,0.0003150000000000,0.0020000000000000,0.2810000000000000,0.3270000000000000
14100.0000000000000000,-0.0001080000000000,-0.0001020000000000,-0.0000969000000000,-0.0000000478000000,0.0000000016800000,0.0000640000000000,0.0001110000000000,0.0000642000000000,-0.0000383000000000,-0.0001670000000000,0.0355000000000000,0.0007080000000000,-0.0387000000000000,0.0002800000000000,0.0018400000000000,0.2840000000000000,0.3310000000000000
14200.0000000000000000,-0.0001080000000000,-0.0001020000000000,-0.0000970000000000,-0.0000000506000000,0.0000000990000000,0.0000641000000000,0.0001110000000000,0.0000644000000000,-0.0000384000000000,-0.0001670000000000,0.0364000000000000,0.0007100000000000,-0.0396000000000000,0.0002990000000000,0.0019200000000000,0.2870000000000000,0.3340000000000000
14300.0000000000000000,-0.0001100000000000,-0.0001040000000000,-0.0000984000000000,-0.0000000588000000,0.0000003820000000,0.0000643000000000,0.0001120000000000,0.0000645000000000,-0.0000397000000000,-0.0001690000000000,0.0373000000000000,0.0007220000000000,-0.0406000000000000,0.0003600000000000,0.0020800000000000,0.2900000000000000,0.3380000000000000
14400.0000000000000000,-0.0001100000000000,-0.0001040000000000,-0.0000983000000000,-0.0000000497000000,0.0000000873000000,0.0000644000000000,0.0001120000000000,0.0000647000000000,-0.0000396000000000,-0.0001690000000000,0.0383000000000000,0.0007210000000000,-0.0415000000000000,0.0003030000000000,0.0019300000000000,0.2930000000000000,0.3410000000000000
14500.0000000000000000,-0.0001100000000000,-0.0001040000000000,-0.0000982000000000,-0.0000000478000000,0.0000000407000000,0.0000645000000000,0.0001120000000000,0.0000648000000000,-0.0000393000000000,-0.0001690000000000,0.0393000000000000,0.0007190000000000,-0.0425000000000000,0.0002920000000000,0.0018900000000000,0.2960000000000000,0.3450000000000000
14600.0000000000000000,-0.0001110000000000,-0.0001050000000000,-0.0000990000000000,-0.0000000462000000,0.0000000561000000,0.0000647000000000,0.0001130000000000,0.0000650000000000,-0.0000402000000000,-0.0001700000000000,0.0403000000000000,0.0007260000000000,-0.0436000000000000,0.0003000000000000,0.0019200000000000,0.2990000000000000,0.3490000000000000
14700.0000000000000000,-0.0001120000000000,-0.0001060000000000,-0.0000997000000000,-0.0000000461000000,0.0000001330000000,0.0000648000000000,0.0001130000000000,0.0000651000000000,-0.0000408000000000,-0.0001710000000000,0.0413000000000000,0.0007330000000000,-0.0446000000000000,0.0003350000000000,0.0019700000000000,0.3020000000000000,0.3520000000000000
14800.0000000000000000,-0.0001130000000000,-0.0001060000000000,-0.0001000000000000,-0.0000000495000000,0.0000001880000000,0.0000650000000000,0.0001130000000000,0.0000653000000000,-0.0000414000000000,-0.0001720000000000,0.0423000000000000,0.0007370000000000,-0.0456000000000000,0.0003340000000000,0.0020000000000000,0.3050000000000000,0.3560000000000000
14900.0000000000000000,-0.0001120000000000,-0.0001060000000000,-0.0000995000000000,-0.0000000412000000,-0.0000000116000000,0.0000651000000000,0.0001130000000000,0.0000654000000000,-0.0000405000000000,-0.0001710000000000,0.0433000000000000,0.0007300000000000,-0.0466000000000000,0.0002970000000000,0.0018900000000000,0.3080000000000000,0.3600000000000000
15000.0000000000000000,-0.0001140000000000,-0.0001080000000000,-0.0001010000000000,-0.0000000432000000,0.0000000938000000,0.0000653000000000,0.0001140000000000,0.0000656000000000,-0.0000423000000000,-0.0001730000000000,0.0444000000000000,0.0007450000000000,-0.0477000000000000,0.0003330000000000,0.0019600000000000,0.3110000000000000,0.3630000000000000
15100.0000000000000000,-0.0001140000000000,-0.0001070000000000,-0.0001010000000000,-0.0000000452000000,0.0000001720000000,0.0000654000000000,0.0001140000000000,0.0000657000000000,-0.0000419000000000,-0.0001730000000000,0.0454000000000000,0.0007450000000000,-0.0488000000000000,0.0003550000000000,0.0020200000000000,0.3140000000000000,0.3670000000000000
15200.0000000000000000,-0.0001160000000000,-0.0001090000000000,-0.0001030000000000,-0.0000000450000000,0.0000002090000000,0.0000655000000000,0.0001140000000000,0.0000659000000000,-0.0000435000000000,-0.0001750000000000,0.0465000000000000,0.0007570000000000,-0.0499000000000000,0.0003680000000000,0.0020300000000000,0.3170000000000000,0.3700000000000000
15300.0000000000000000,-0.0001150000000000,-0.0001080000000000,-0.0001020000000000,-0.0000000448000000,0.0000000747000000,0.0000657000000000,0.0001140000000000,0.0000660000000000,-0.0000423000000000,-0.0001740000000000,0.0476000000000000,0.0007470000000000,-0.0510000000000000,0.0003300000000000,0.0019600000000000,0.3200000000000000,0.3740000000000000
15400.0000000000000000,-0.0001170000000000,-0.0001100000000000,-0.0001040000000000,-0.0000000423000000,0.0000001700000000,0.0000658000000000,0.0001150000000000,0.0000662000000000,-0.0000443000000000,-0.0001770000000000,0.0487000000000000,0.0007640000000000,-0.0522000000000000,0.0003730000000000,0.0020200000000000,0.3230000000000000,0.3780000000000000
15500.0000000000000000,-0.0001180000000000,-0.0001100000000000,-0.0001040000000000,-0.0000000414000000,0.0000002080000000,0.0000660000000000,0.0001150000000000,0.0000663000000000,-0.0000443000000000,-0.0001770000000000,0.0497000000000000,0.0007670000000000,-0.0532000000000000,0.0003920000000000,0.0020600000000000,0.3260000000000000,0.3810000000000000
15600.0000000000000000,-0.0001180000000000,-0.0001110000000000,-0.0001040000000000,-0.0000000433000000,0.0000001890000000,0.0000661000000000,0.0001150000000000,0.0000665000000000,-0.0000449000000000,-0.0001780000000000,0.0508000000000000,0.0007710000000000,-0.0543000000000000,0.0003790000000000,0.0020400000000000,0.3290000000000000,0.3850000000000000
15700.0000000000000000,-0.0001180000000000,-0.0001110000000000,-0.0001040000000000,-0.0000000405000000,0.0000000734000000,0.0000662000000000,0.0001150000000000,0.0000666000000000,-0.0000441000000000,-0.0001770000000000,0.0519000000000000,0.0007650000000000,-0.0554000000000000,0.0003500000000000,0.0019700000000000,0.3320000000000000,0.3880000000000000
15800.0000000000000000,-0.0001190000000000,-0.0001110000000000,-0.0001040000000000,-0.0000000395000000,0.0000000919000000,0.0000664000000000,0.0001160000000000,0.0000668000000000,-0.0000446000000000,-0.0001780000000000,0.0530000000000000,0.0007700000000000,-0.0565000000000000,0.0003660000000000,0.0020000000000000,0.3350000000000000,0.3920000000000000
15900.0000000000000000,-0.0001200000000000,-0.0001120000000000,-0.0001050000000000,-0.0000000416000000,0.0000002190000000,0.0000665000000000,0.0001160000000000,0.0000669000000000,-0.0000458000000000,-0.0001800000000000,0.0541000000000000,0.0007810000000000,-0.0577000000000000,0.0004110000000000,0.0020700000000000,0.3380000000000000,0.3950000000000000
16000.0000000000000000,-0.0001200000000000,-0.0001120000000000,-0.0001050000000000,-0.0000000370000000,0.0000000380000000,0.0000667000000000,0.0001160000000000,0.0000671000000000,-0.0000452000000000,-0.0001790000000000,0.0552000000000000,0.0007760000000000,-0.0587000000000000,0.0003610000000000,0.0019800000000000,0.3410000000000000,0.3990000000000000
16100.0000000000000000,-0.0001200000000000,-0.0001120000000000,-0.0001050000000000,-0.0000000376000000,0.0000000486000000,0.0000668000000000,0.0001160000000000,0.0000672000000000,-0.0000455000000000,-0.0001800000000000,0.0564000000000000,0.0007780000000000,-0.0599000000000000,0.0003630000000000,0.0019700000000000,0.3440000000000000,0.4020000000000000
16200.0000000000000000,-0.0001210000000000,-0.0001130000000000,-0.0001050000000000,-0.0000000373000000,0.0000000769000000,0.0000669000000000,0.0001170000000000,0.0000674000000000,-0.0000455000000000,-0.0001800000000000,0.0576000000000000,0.0007800000000000,-0.0611000000000000,0.0003780000000000,0.0020100000000000,0.3460000000000000,0.4060000000000000
16300.0000000000000000,-0.0001230000000000,-0.0001150000000000,-0.0001070000000000,-0.0000000381000000,0.0000001480000000,0.0000671000000000,0.0001170000000000,0.0000675000000000,-0.0000474000000000,-0.0001820000000000,0.0588000000000000,0.0007960000000000,-0.0624000000000000,0.0004140000000000,0.0020500000000000,0.3490000000000000,0.4100000000000000
16400.0000000000000000,-0.0001220000000000,-0.0001140000000000,-0.0001060000000000,-0.0000000348000000,0.0000000192000000,0.0000672000000000,0.0001170000000000,0.0000677000000000,-0.0000466000000000,-0.0001820000000000,0.0600000000000000,0.0007900000000000,-0.0635000000000000,0.0003740000000000,0.0019800000000000,0.3520000000000000,0.4130000000000000
16500.0000000000000000,-0.0001220000000000,-0.0001140000000000,-0.0001070000000000,-0.0000000379000000,0.0000000572000000,0.0000674000000000,0.0001170000000000,0.0000678000000000,-0.0000466000000000,-0.0001820000000000,0.0612000000000000,0.0007900000000000,-0.0648000000000000,0.0003780000000000,0.0019900000000000,0.3550000000000000,0.4170000000000000
16600.0000000000000000,-0.0001240000000000,-0.0001160000000000,-0.0001080000000000,-0.0000000352000000,0.0000000853000000,0.0000675000000000,0.0001180000000000,0.0000680000000000,-0.0000481000000000,-0.0001840000000000,0.0624000000000000,0.0008060000000000,-0.0661000000000000,0.0004200000000000,0.0020200000000000,0.3580000000000000,0.4200000000000000
16700.0000000000000000,-0.0001240000000000,-0.0001160000000000,-0.0001080000000000,-0.0000000284000000,0.0000000222000000,0.0000675000000000,0.0001180000000000,0.0000680000000000,-0.0000480000000000,-0.0001840000000000,0.0636000000000000,0.0008020000000000,-0.0672000000000000,0.0004010000000000,0.0020000000000000,0.3610000000000000,0.4240000000000000
16800.0000000000000000,-0.0001260000000000,-0.0001170000000000,-0.0001100000000000,-0.0000000427000000,0.0000001900000000,0.0000678000000000,0.0001180000000000,0.0000683000000000,-0.0000494000000000,-0.0001860000000000,0.0648000000000000,0.0008180000000000,-0.0685000000000000,0.0004450000000000,0.0020800000000000,0.3640000000000000,0.4270000000000000
16900.0000000000000000,-0.0001250000000000,-0.0001160000000000,-0.0001080000000000,-0.0000000386000000,0.0000000588000000,0.0000679000000000,0.0001190000000000,0.0000685000000000,-0.0000480000000000,-0.0001850000000000,0.0662000000000000,0.0008040000000000,-0.0698000000000000,0.0003940000000000,0.0020200000000000,0.3670000000000000,0.4310000000000000
17000.0000000000000000,-0.0001250000000000,-0.0001170000000000,-0.0001080000000000,-0.0000000317000000,-0.0000001010000000,0.0000681000000000,0.0001190000000000,0.0000686000000000,-0.0000482000000000,-0.0001850000000000,0.0674000000000000,0.0008040000000000,-0.0711000000000000,0.0003590000000000,0.0019200000000000,0.3700000000000000,0.4350000000000000
17100.0000000000000000,-0.0001260000000000,-0.0001170000000000,-0.0001090000000000,-0.0000000387000000,0.0000000867000000,0.0000682000000000,0.0001190000000000,0.0000687000000000,-0.0000486000000000,-0.0001860000000000,0.0686000000000000,0.0008100000000000,-0.0722000000000000,0.0004080000000000,0.0020400000000000,0.3730000000000000,0.4380000000000000
17200.0000000000000000,-0.0001280000000000,-0.0001190000000000,-0.0001110000000000,-0.0000000434000000,0.0000002710000000,0.0000684000000000,0.0001190000000000,0.0000689000000000,-0.0000504000000000,-0.0001880000000000,0.0698000000000000,0.0008270000000000,-0.0736000000000000,0.0004830000000000,0.0021500000000000,0.3750000000000000,0.4410000000000000
17300.0000000000000000,-0.0001280000000000,-0.0001190000000000,-0.0001110000000000,-0.0000000347000000,0.0000000601000000,0.0000685000000000,0.0001200000000000,0.0000690000000000,-0.0000502000000000,-0.0001880000000000,0.0711000000000000,0.0008260000000000,-0.0748000000000000,0.0004340000000000,0.0020400000000000,0.3780000000000000,0.4450000000000000
17400.0000000000000000,-0.0001280000000000,-0.0001190000000000,-0.0001110000000000,-0.0000000314000000,-0.0000000183000000,0.0000686000000000,0.0001200000000000,0.0000692000000000,-0.0000502000000000,-0.0001890000000000,0.0724000000000000,0.0008250000000000,-0.0761000000000000,0.0004060000000000,0.0019900000000000,0.3810000000000000,0.4480000000000000
17500.0000000000000000,-0.0001280000000000,-0.0001190000000000,-0.0001110000000000,-0.0000000296000000,-0.0000001020000000,0.0000688000000000,0.0001200000000000,0.0000693000000000,-0.0000502000000000,-0.0001890000000000,0.0736000000000000,0.0008250000000000,-0.0774000000000000,0.0003790000000000,0.0019500000000000,0.3840000000000000,0.4520000000000000
17600.0000000000000000,-0.0001300000000000,-0.0001200000000000,-0.0001120000000000,-0.0000000375000000,0.0000000883000000,0.0000689000000000,0.0001200000000000,0.0000695000000000,-0.0000512000000000,-0.0001900000000000,0.0749000000000000,0.0008340000000000,-0.0787000000000000,0.0004440000000000,0.0020600000000000,0.3870000000000000,0.4550000000000000
17700.0000000000000000,-0.0001310000000000,-0.0001210000000000,-0.0001120000000000,-0.0000000424000000,0.0000002450000000,0.0000690000000000,0.0001210000000000,0.0000696000000000,-0.0000519000000000,-0.0001910000000000,0.0762000000000000,0.0008420000000000,-0.0801000000000000,0.0005010000000000,0.0021500000000000,0.3900000000000000,0.4590000000000000
17800.0000000000000000,-0.0001300000000000,-0.0001210000000000,-0.0001120000000000,-0.0000000375000000,0.0000000829000000,0.0000692000000000,0.0001210000000000,0.0000698000000000,-0.0000513000000000,-0.0001910000000000,0.0776000000000000,0.0008370000000000,-0.0814000000000000,0.0004510000000000,0.0020600000000000,0.3920000000000000,0.4620000000000000
17900.0000000000000000,-0.0001310000000000,-0.0001210000000000,-0.0001120000000000,-0.0000000342000000,-0.0000000108000000,0.0000693000000000,0.0001210000000000,0.0000700000000000,-0.0000517000000000,-0.0001920000000000,0.0790000000000000,0.0008390000000000,-0.0828000000000000,0.0004210000000000,0.0020000000000000,0.3950000000000000,0.4660000000000000
18000.0000000000000000,-0.0001320000000000,-0.0001220000000000,-0.0001130000000000,-0.0000000325000000,-0.0000000178000000,0.0000695000000000,0.0001210000000000,0.0000701000000000,-0.0000520000000000,-0.0001920000000000,0.0803000000000000,0.0008430000000000,-0.0841000000000000,0.0004260000000000,0.0020100000000000,0.3980000000000000,0.4690000000000000
18100.0000000000000000,-0.0001330000000000,-0.0001230000000000,-0.0001140000000000,-0.0000000372000000,0.0000001030000000,0.0000696000000000,0.0001220000000000,0.0000703000000000,-0.0000530000000000,-0.0001940000000000,0.0816000000000000,0.0008530000000000,-0.0855000000000000,0.0004860000000000,0.0020800000000000,0.4010000000000000,0.4730000000000000
18200.0000000000000000,-0.0001330000000000,-0.0001230000000000,-0.0001140000000000,-0.0000000387000000,0.0000001630000000,0.0000697000000000,0.0001220000000000,0.0000704000000000,-0.0000531000000000,-0.0001940000000000,0.0830000000000000,0.0008550000000000,-0.0869000000000000,0.0005060000000000,0.0021300000000000,0.4040000000000000,0.4760000000000000
18300.0000000000000000,-0.0001340000000000,-0.0001240000000000,-0.0001140000000000,-0.0000000367000000,0.0000000517000000,0.0000699000000000,0.0001220000000000,0.0000706000000000,-0.0000532000000000,-0.0001940000000000,0.0844000000000000,0.0008550000000000,-0.0883000000000000,0.0004660000000000,0.0020500000000000,0.4070000000000000,0.4800000000000000
18400.0000000000000000,-0.0001340000000000,-0.0001240000000000,-0.0001140000000000,-0.0000000315000000,-0.0000000666000000,0.0000700000000000,0.0001220000000000,0.0000707000000000,-0.0000532000000000,-0.0001950000000000,0.0857000000000000,0.0008540000000000,-0.0896000000000000,0.0004250000000000,0.0020000000000000,0.4090000000000000,0.4830000000000000
18500.0000000000000000,-0.0001350000000000,-0.0001250000000000,-0.0001150000000000,-0.0000000342000000,0.0000000540000000,0.0000702000000000,0.0001230000000000,0.0000709000000000,-0.0000544000000000,-0.0001960000000000,0.0870000000000000,0.0008660000000000,-0.0910000000000000,0.0004880000000000,0.0020600000000000,0.4120000000000000,0.4870000000000000
18600.0000000000000000,-0.0001360000000000,-0.0001250000000000,-0.0001150000000000,-0.0000000375000000,0.0000001070000000,0.0000703000000000,0.0001230000000000,0.0000710000000000,-0.0000545000000000,-0.0001970000000000,0.0884000000000000,0.0008690000000000,-0.0923000000000000,0.0005090000000000,0.0021100000000000,0.4150000000000000,0.4900000000000000
18700.0000000000000000,-0.0001370000000000,-0.0001260000000000,-0.0001160000000000,-0.0000000424000000,0.0000002040000000,0.0000704000000000,0.0001230000000000,0.0000712000000000,-0.0000553000000000,-0.0001980000000000,0.0898000000000000,0.0008750000000000,-0.0938000000000000,0.0005440000000000,0.0021500000000000,0.4170000000000000,0.4930000000000000
18800.0000000000000000,-0.0001360000000000,-0.0001250000000000,-0.0001150000000000,-0.0000000325000000,-0.0000000396000000,0.0000706000000000,0.0001240000000000,0.0000713000000000,-0.0000543000000000,-0.0001970000000000,0.0912000000000000,0.0008670000000000,-0.0951000000000000,0.0004530000000000,0.0020300000000000,0.4200000000000000,0.4970000000000000
18900.0000000000000000,-0.0001370000000000,-0.0001260000000000,-0.0001160000000000,-0.0000000343000000,-0.0000000088200000,0.0000707000000000,0.0001240000000000,0.0000715000000000,-0.0000550000000000,-0.0001980000000000,0.0926000000000000,0.0008720000000000,-0.0966000000000000,0.0004670000000000,0.0020300000000000,0.4230000000000000,0.5000000000000000
19000.0000000000000000,-0.0001380000000000,-0.0001270000000000,-0.0001170000000000,-0.0000000381000000,0.0000000922000000,0.0000708000000000,0.0001240000000000,0.0000716000000000,-0.0000555000000000,-0.0001990000000000,0.0941000000000000,0.0008780000000000,-0.0981000000000000,0.0005100000000000,0.0021100000000000,0.4260000000000000,0.5040000000000000
19100.0000000000000000,-0.0001390000000000,-0.0001280000000000,-0.0001180000000000,-0.0000000400000000,0.0000001630000000,0.0000710000000000,0.0001240000000000,0.0000718000000000,-0.0000565000000000,-0.0002000000000000,0.0955000000000000,0.0008890000000000,-0.0995000000000000,0.0005620000000000,0.0021400000000000,0.4280000000000000,0.5070000000000000
19200.0000000000000000,-0.0001390000000000,-0.0001280000000000,-0.0001180000000000,-0.0000000363000000,0.0000001020000000,0.0000711000000000,0.0001250000000000,0.0000719000000000,-0.0000566000000000,-0.0002000000000000,0.0969000000000000,0.0008880000000000,-0.1010000000000000,0.0005390000000000,0.0021200000000000,0.4310000000000000,0.5110000000000000
19300.0000000000000000,-0.0001390000000000,-0.0001280000000000,-0.0001180000000000,-0.0000000337000000,0.0000000007230000,0.0000712000000000,0.0001250000000000,0.0000721000000000,-0.0000565000000000,-0.0002010000000000,0.0984000000000000,0.0008880000000000,-0.1020000000000000,0.0004980000000000,0.0020500000000000,0.4340000000000000,0.5140000000000000
19400.0000000000000000,-0.0001390000000000,-0.0001280000000000,-0.0001170000000000,-0.0000000301000000,-0.0000000878000000,0.0000714000000000,0.0001250000000000,0.0000722000000000,-0.0000559000000000,-0.0002000000000000,0.0999000000000000,0.0008830000000000,-0.1040000000000000,0.0004630000000000,0.0020200000000000,0.4360000000000000,0.5170000000000000
19500.0000000000000000,-0.0001410000000000,-0.0001300000000000,-0.0001190000000000,-0.0000000389000000,0.0000001210000000,0.0000715000000000,0.0001250000000000,0.0000724000000000,-0.0000574000000000,-0.0002020000000000,0.1010000000000000,0.0008970000000000,-0.1050000000000000,0.0005560000000000,0.0021200000000000,0.4390000000000000,0.5210000000000000
19600.0000000000000000,-0.0001410000000000,-0.0001300000000000,-0.0001190000000000,-0.0000000411000000,0.0000001510000000,0.0000716000000000,0.0001260000000000,0.0000725000000000,-0.0000577000000000,-0.0002030000000000,0.1030000000000000,0.0009010000000000,-0.1070000000000000,0.0005740000000000,0.0021600000000000,0.4420000000000000,0.5240000000000000
19700.0000000000000000,-0.0001420000000000,-0.0001310000000000,-0.0001200000000000,-0.0000000430000000,0.0000001900000000,0.0000718000000000,0.0001260000000000,0.0000727000000000,-0.0000585000000000,-0.0002040000000000,0.1040000000000000,0.0009070000000000,-0.1080000000000000,0.0005910000000000,0.0021600000000000,0.4440000000000000,0.5270000000000000
19800.0000000000000000,-0.0001420000000000,-0.0001300000000000,-0.0001190000000000,-0.0000000324000000,-0.0000000392000000,0.0000719000000000,0.0001260000000000,0.0000728000000000,-0.0000576000000000,-0.0002030000000000,0.1060000000000000,0.0008990000000000,-0.1100000000000000,0.0005030000000000,0.0020500000000000,0.4470000000000000,0.5310000000000000
19900.0000000000000000,-0.0001430000000000,-0.0001310000000000,-0.0001190000000000,-0.0000000316000000,-0.0000000422000000,0.0000720000000000,0.0001260000000000,0.0000730000000000,-0.0000581000000000,-0.0002040000000000,0.1070000000000000,0.0009030000000000,-0.1110000000000000,0.0005100000000000,0.0020400000000000,0.4490000000000000,0.5340000000000000
20000.0000000000000000,-0.0001440000000000,-0.0001320000000000,-0.0001200000000000,-0.0000000389000000,0.0000001020000000,0.0000722000000000,0.0001270000000000,0.0000731000000000,-0.0000590000000000,-0.0002050000000000,0.1090000000000000,0.0009120000000000,-0.1130000000000000,0.0005690000000000,0.0021300000000000,0.4520000000000000,0.5370000000000000
20100.0000000000000000,-0.0001450000000000,-0.0001330000000000,-0.0001210000000000,-0.0000000440000000,0.0000001970000000,0.0000723000000000,0.0001270000000000,0.0000733000000000,-0.0000599000000000,-0.0002060000000000,0.1100000000000000,0.0009210000000000,-0.1140000000000000,0.0006220000000000,0.0021800000000000,0.4550000000000000,0.5410000000000000
20200.0000000000000000,-0.0001450000000000,-0.0001330000000000,-0.0001210000000000,-0.0000000419000000,0.0000001550000000,0.0000724000000000,0.0001270000000000,0.0000734000000000,-0.0000595000000000,-0.0002060000000000,0.1120000000000000,0.0009190000000000,-0.1160000000000000,0.0006040000000000,0.0021600000000000,0.4570000000000000,0.5440000000000000
20300.0000000000000000,-0.0001450000000000,-0.0001330000000000,-0.0001210000000000,-0.0000000379000000,0.0000000530000000,0.0000726000000000,0.0001270000000000,0.0000736000000000,-0.0000595000000000,-0.0002070000000000,0.1130000000000000,0.0009180000000000,-0.1170000000000000,0.0005600000000000,0.0021000000000000,0.4600000000000000,0.5480000000000000
20400.0000000000000000,-0.0001450000000000,-0.0001330000000000,-0.0001210000000000,-0.0000000340000000,-0.0000000230000000,0.0000727000000000,0.0001280000000000,0.0000737000000000,-0.0000594000000000,-0.0002070000000000,0.1150000000000000,0.0009180000000000,-0.1190000000000000,0.0005350000000000,0.0020700000000000,0.4630000000000000,0.5510000000000000
20500.0000000000000000,-0.0001460000000000,-0.0001340000000000,-0.0001220000000000,-0.0000000394000000,0.0000001090000000,0.0000728000000000,0.0001280000000000,0.0000739000000000,-0.0000602000000000,-0.0002080000000000,0.1160000000000000,0.0009260000000000,-0.1200000000000000,0.0006020000000000,0.0021400000000000,0.4650000000000000,0.5540000000000000
20600.0000000000000000,-0.0001470000000000,-0.0001350000000000,-0.0001230000000000,-0.0000000429000000,0.0000001670000000,0.0000730000000000,0.0001280000000000,0.0000740000000000,-0.0000611000000000,-0.0002090000000000,0.1180000000000000,0.0009340000000000,-0.1220000000000000,0.0006370000000000,0.0021700000000000,0.4680000000000000,0.5580000000000000
20700.0000000000000000,-0.0001480000000000,-0.0001350000000000,-0.0001230000000000,-0.0000000420000000,0.0000001590000000,0.0000731000000000,0.0001280000000000,0.0000742000000000,-0.0000610000000000,-0.0002090000000000,0.1190000000000000,0.0009340000000000,-0.1240000000000000,0.0006350000000000,0.0021700000000000,0.4700000000000000,0.5610000000000000
20800.0000000000000000,-0.0001480000000000,-0.0001350000000000,-0.0001220000000000,-0.0000000359000000,0.0000000244000000,0.0000732000000000,0.0001290000000000,0.0000743000000000,-0.0000608000000000,-0.0002090000000000,0.1210000000000000,0.0009320000000000,-0.1250000000000000,0.0005790000000000,0.0021000000000000,0.4730000000000000,0.5640000000000000
20900.0000000000000000,-0.0001480000000000,-0.0001350000000000,-0.0001230000000000,-0.0000000319000000,-0.0000000481000000,0.0000734000000000,0.0001290000000000,0.0000745000000000,-0.0000608000000000,-0.0002100000000000,0.1220000000000000,0.0009320000000000,-0.1270000000000000,0.0005510000000000,0.0020700000000000,0.4750000000000000,0.5670000000000000
21000.0000000000000000,-0.0001490000000000,-0.0001360000000000,-0.0001230000000000,-0.0000000402000000,0.0000001030000000,0.0000735000000000,0.0001290000000000,0.0000746000000000,-0.0000617000000000,-0.0002110000000000,0.1240000000000000,0.0009410000000000,-0.1280000000000000,0.0006220000000000,0.0021400000000000,0.4780000000000000,0.5700000000000000
21100.0000000000000000,-0.0001500000000000,-0.0001370000000000,-0.0001240000000000,-0.0000000424000000,0.0000001400000000,0.0000736000000000,0.0001290000000000,0.0000748000000000,-0.0000621000000000,-0.0002120000000000,0.1250000000000000,0.0009450000000000,-0.1300000000000000,0.0006470000000000,0.0021800000000000,0.4800000000000000,0.5740000000000000
21200.0000000000000000,-0.0001510000000000,-0.0001370000000000,-0.0001240000000000,-0.0000000421000000,0.0000001480000000,0.0000738000000000,0.0001300000000000,0.0000749000000000,-0.0000626000000000,-0.0002120000000000,0.1270000000000000,0.0009500000000000,-0.1310000000000000,0.0006570000000000,0.0021700000000000,0.4830000000000000,0.5770000000000000
21300.0000000000000000,-0.0001500000000000,-0.0001370000000000,-0.0001240000000000,-0.0000000329000000,-0.0000000273000000,0.0000739000000000,0.0001300000000000,0.0000751000000000,-0.0000619000000000,-0.0002120000000000,0.1290000000000000,0.0009430000000000,-0.1330000000000000,0.0005810000000000,0.0020900000000000,0.4850000000000000,0.5800000000000000
21400.0000000000000000,-0.0001510000000000,-0.0001370000000000,-0.0001240000000000,-0.0000000325000000,-0.0000000366000000,0.0000740000000000,0.0001300000000000,0.0000752000000000,-0.0000624000000000,-0.0002130000000000,0.1300000000000000,0.0009470000000000,-0.1350000000000000,0.0005820000000000,0.0020800000000000,0.4880000000000000,0.5830000000000000
21500.0000000000000000,-0.0001510000000000,-0.0001380000000000,-0.0001250000000000,-0.0000000363000000,0.0000000397000000,0.0000741000000000,0.0001310000000000,0.0000754000000000,-0.0000627000000000,-0.0002130000000000,0.1320000000000000,0.0009510000000000,-0.1360000000000000,0.0006230000000000,0.0021300000000000,0.4900000000000000,0.5870000000000000
21600.0000000000000000,-0.0001530000000000,-0.0001390000000000,-0.0001260000000000,-0.0000000424000000,0.0000001470000000,0.0000743000000000,0.0001310000000000,0.0000755000000000,-0.0000637000000000,-0.0002150000000000,0.1330000000000000,0.0009610000000000,-0.1380000000000000,0.0006860000000000,0.0021800000000000,0.4930000000000000,0.5900000000000000
21700.0000000000000000,-0.0001530000000000,-0.0001390000000000,-0.0001250000000000,-0.0000000396000000,0.0000000924000000,0.0000744000000000,0.0001310000000000,0.0000757000000000,-0.0000635000000000,-0.0002150000000000,0.1350000000000000,0.0009600000000000,-0.1390000000000000,0.0006590000000000,0.0021600000000000,0.4950000000000000,0.5930000000000000
21800.0000000000000000,-0.0001530000000000,-0.0001390000000000,-0.0001260000000000,-0.0000000361000000,0.0000000245000000,0.0000745000000000,0.0001310000000000,0.0000758000000000,-0.0000636000000000,-0.0002150000000000,0.1370000000000000,0.0009600000000000,-0.1410000000000000,0.0006300000000000,0.0021100000000000,0.4980000000000000,0.5960000000000000
21900.0000000000000000,-0.0001530000000000,-0.0001390000000000,-0.0001250000000000,-0.0000000290000000,-0.0000000893000000,0.0000747000000000,0.0001320000000000,0.0000760000000000,-0.0000631000000000,-0.0002150000000000,0.1380000000000000,0.0009560000000000,-0.1430000000000000,0.0005820000000000,0.0020700000000000,0.5000000000000000,0.6000000000000000
22000.0000000000000000,-0.0001550000000000,-0.0001410000000000,-0.0001270000000000,-0.0000000409000000,0.0000001110000000,0.0000748000000000,0.0001320000000000,0.0000761000000000,-0.0000647000000000,-0.0002170000000000,0.1400000000000000,0.0009710000000000,-0.1440000000000000,0.0006810000000000,0.0021500000000000,0.5020000000000000,0.6030000000000000
22100.0000000000000000,-0.0001550000000000,-0.0001410000000000,-0.0001270000000000,-0.0000000424000000,0.0000001330000000,0.0000749000000000,0.0001320000000000,0.0000762000000000,-0.0000647000000000,-0.0002170000000000,0.1410000000000000,0.0009720000000000,-0.1460000000000000,0.0006990000000000,0.0021900000000000,0.5050000000000000,0.6060000000000000
22200.0000000000000000,-0.0001560000000000,-0.0001420000000000,-0.0001280000000000,-0.0000000465000000,0.0000002000000000,0.0000750000000000,0.0001320000000000,0.0000764000000000,-0.0000656000000000,-0.0002180000000000,0.1430000000000000,0.0009800000000000,-0.1470000000000000,0.0007330000000000,0.0021900000000000,0.5070000000000000,0.6090000000000000
22300.0000000000000000,-0.0001560000000000,-0.0001410000000000,-0.0001270000000000,-0.0000000343000000,-0.0000000044900000,0.0000752000000000,0.0001330000000000,0.0000765000000000,-0.0000647000000000,-0.0002180000000000,0.1450000000000000,0.0009720000000000,-0.1490000000000000,0.0006380000000000,0.0021200000000000,0.5090000000000000,0.6120000000000000
22400.0000000000000000,-0.0001560000000000,-0.0001410000000000,-0.0001270000000000,-0.0000000317000000,-0.0000000216000000,0.0000753000000000,0.0001330000000000,0.0000767000000000,-0.0000650000000000,-0.0002180000000000,0.1460000000000000,0.0009740000000000,-0.1510000000000000,0.0006390000000000,0.0020800000000000,0.5120000000000000,0.6150000000000000
22500.0000000000000000,-0.0001570000000000,-0.0001420000000000,-0.0001280000000000,-0.0000000358000000,0.0000000387000000,0.0000754000000000,0.0001330000000000,0.0000768000000000,-0.0000654000000000,-0.0002190000000000,0.1480000000000000,0.0009790000000000,-0.1520000000000000,0.0006720000000000,0.0021400000000000,0.5140000000000000,0.6180000000000000
22600.0000000000000000,-0.0001580000000000,-0.0001430000000000,-0.0001290000000000,-0.0000000462000000,0.0000001910000000,0.0000755000000000,0.0001330000000000,0.0000770000000000,-0.0000667000000000,-0.0002210000000000,0.1500000000000000,0.0009910000000000,-0.1540000000000000,0.0007560000000000,0.0021900000000000,0.5160000000000000,0.6220000000000000
22700.0000000000000000,-0.0001580000000000,-0.0001430000000000,-0.0001280000000000,-0.0000000441000000,0.0000001550000000,0.0000757000000000,0.0001340000000000,0.0000771000000000,-0.0000661000000000,-0.0002200000000000,0.1510000000000000,0.0009870000000000,-0.1560000000000000,0.0007380000000000,0.0022000000000000,0.5190000000000000,0.6250000000000000
22800.0000000000000000,-0.0001590000000000,-0.0001430000000000,-0.0001280000000000,-0.0000000369000000,0.0000000397000000,0.0000758000000000,0.0001340000000000,0.0000773000000000,-0.0000662000000000,-0.0002210000000000,0.1530000000000000,0.0009880000000000,-0.1570000000000000,0.0006910000000000,0.0021200000000000,0.5210000000000000,0.6280000000000000
22900.0000000000000000,-0.0001580000000000,-0.0001430000000000,-0.0001280000000000,-0.0000000257000000,-0.0000001270000000,0.0000759000000000,0.0001340000000000,0.0000774000000000,-0.0000655000000000,-0.0002200000000000,0.1550000000000000,0.0009810000000000,-0.1590000000000000,0.0006150000000000,0.0020700000000000,0.5240000000000000,0.6310000000000000
23000.0000000000000000,-0.0001600000000000,-0.0001440000000000,-0.0001290000000000,-0.0000000349000000,0.0000000126000000,0.0000760000000000,0.0001340000000000,0.0000776000000000,-0.0000666000000000,-0.0002220000000000,0.1560000000000000,0.0009910000000000,-0.1610000000000000,0.0006870000000000,0.0021200000000000,0.5260000000000000,0.6340000000000000
23100.0000000000000000,-0.0001600000000000,-0.0001440000000000,-0.0001290000000000,-0.0000000393000000,0.0000000827000000,0.0000762000000000,0.0001350000000000,0.0000777000000000,-0.0000670000000000,-0.0002220000000000,0.1580000000000000,0.0009960000000000,-0.1620000000000000,0.0007320000000000,0.0021800000000000,0.5280000000000000,0.6370000000000000
23200.0000000000000000,-0.0001610000000000,-0.0001450000000000,-0.0001300000000000,-0.0000000446000000,0.0000001610000000,0.0000763000000000,0.0001350000000000,0.0000779000000000,-0.0000677000000000,-0.0002230000000000,0.1590000000000000,0.0010000000000000,-0.1640000000000000,0.0007750000000000,0.0022000000000000,0.5300000000000000,0.6400000000000000
23300.0000000000000000,-0.0001610000000000,-0.0001450000000000,-0.0001300000000000,-0.0000000350000000,0.0000000116000000,0.0000764000000000,0.0001350000000000,0.0000780000000000,-0.0000673000000000,-0.0002230000000000,0.1610000000000000,0.0009990000000000,-0.1660000000000000,0.0007020000000000,0.0021300000000000,0.5320000000000000,0.6430000000000000
23400.0000000000000000,-0.0001610000000000,-0.0001450000000000,-0.0001300000000000,-0.0000000292000000,-0.0000000746000000,0.0000765000000000,0.0001350000000000,0.0000782000000000,-0.0000672000000000,-0.0002240000000000,0.1630000000000000,0.0009980000000000,-0.1670000000000000,0.0006630000000000,0.0020800000000000,0.5350000000000000,0.6460000000000000
23500.0000000000000000,-0.0001620000000000,-0.0001460000000000,-0.0001300000000000,-0.0000000338000000,-0.0000000066600000,0.0000766000000000,0.0001360000000000,0.0000783000000000,-0.0000675000000000,-0.0002240000000000,0.1640000000000000,0.0010000000000000,-0.1690000000000000,0.0006980000000000,0.0021200000000000,0.5370000000000000,0.6490000000000000
23600.0000000000000000,-0.0001630000000000,-0.0001470000000000,-0.0001310000000000,-0.0000000410000000,0.0000001020000000,0.0000768000000000,0.0001360000000000,0.0000784000000000,-0.0000684000000000,-0.0002250000000000,0.1660000000000000,0.0010100000000000,-0.1710000000000000,0.0007660000000000,0.0021700000000000,0.5390000000000000,0.6520000000000000
23700.0000000000000000,-0.0001640000000000,-0.0001470000000000,-0.0001310000000000,-0.0000000467000000,0.0000001780000000,0.0000769000000000,0.0001360000000000,0.0000786000000000,-0.0000690000000000,-0.0002260000000000,0.1680000000000000,0.0010200000000000,-0.1720000000000000,0.0008050000000000,0.0022000000000000,0.5420000000000000,0.6550000000000000
23800.0000000000000000,-0.0001640000000000,-0.0001470000000000,-0.0001310000000000,-0.0000000408000000,0.0000000860000000,0.0000770000000000,0.0001360000000000,0.0000787000000000,-0.0000685000000000,-0.0002260000000000,0.1700000000000000,0.0010100000000000,-0.1740000000000000,0.0007590000000000,0.0021600000000000,0.5440000000000000,0.6590000000000000
23900.0000000000000000,-0.0001640000000000,-0.0001470000000000,-0.0001310000000000,-0.0000000327000000,-0.0000000240000000,0.0000771000000000,0.0001370000000000,0.0000789000000000,-0.0000683000000000,-0.0002260000000000,0.1710000000000000,0.0010100000000000,-0.1760000000000000,0.0007110000000000,0.0021000000000000,0.5460000000000000,0.6620000000000000
24000.0000000000000000,-0.0001640000000000,-0.0001480000000000,-0.0001310000000000,-0.0000000342000000,0.0000000014800000,0.0000773000000000,0.0001370000000000,0.0000790000000000,-0.0000687000000000,-0.0002270000000000,0.1730000000000000,0.0010100000000000,-0.1780000000000000,0.0007290000000000,0.0021200000000000,0.5480000000000000,0.6650000000000000
24100.0000000000000000,-0.0001650000000000,-0.0001480000000000,-0.0001320000000000,-0.0000000409000000,0.0000000979000000,0.0000774000000000,0.0001370000000000,0.0000792000000000,-0.0000695000000000,-0.0002280000000000,0.1750000000000000,0.0010200000000000,-0.1790000000000000,0.0007900000000000,0.0021600000000000,0.5500000000000000,0.6680000000000000
24200.0000000000000000,-0.0001660000000000,-0.0001490000000000,-0.0001320000000000,-0.0000000430000000,0.0000001260000000,0.0000775000000000,0.0001370000000000,0.0000793000000000,-0.0000697000000000,-0.0002280000000000,0.1760000000000000,0.0010200000000000,-0.1810000000000000,0.0008070000000000,0.0021900000000000,0.5520000000000000,0.6700000000000000
24300.0000000000000000,-0.0001660000000000,-0.0001490000000000,-0.0001320000000000,-0.0000000395000000,0.0000000768000000,0.0000776000000000,0.0001380000000000,0.0000795000000000,-0.0000699000000000,-0.0002290000000000,0.1780000000000000,0.0010300000000000,-0.1830000000000000,0.0007860000000000,0.0021500000000000,0.5550000000000000,0.6730000000000000
24400.0000000000000000,-0.0001660000000000,-0.0001490000000000,-0.0001320000000000,-0.0000000301000000,-0.0000000509000000,0.0000777000000000,0.0001380000000000,0.0000796000000000,-0.0000693000000000,-0.0002290000000000,0.1800000000000000,0.0010200000000000,-0.1840000000000000,0.0007230000000000,0.0021100000000000,0.5570000000000000,0.6760000000000000
24500.0000000000000000,-0.0001670000000000,-0.0001500000000000,-0.0001330000000000,-0.0000000368000000,0.0000000361000000,0.0000778000000000,0.0001380000000000,0.0000798000000000,-0.0000702000000000,-0.0002300000000000,0.1810000000000000,0.0010300000000000,-0.1860000000000000,0.0007720000000000,0.0021300000000000,0.5590000000000000,0.6790000000000000
24600.0000000000000000,-0.0001680000000000,-0.0001500000000000,-0.0001330000000000,-0.0000000357000000,0.0000000279000000,0.0000780000000000,0.0001380000000000,0.0000799000000000,-0.0000702000000000,-0.0002300000000000,0.1830000000000000,0.0010300000000000,-0.1880000000000000,0.0007820000000000,0.0021600000000000,0.5610000000000000,0.6820000000000000
24700.0000000000000000,-0.0001690000000000,-0.0001510000000000,-0.0001330000000000,-0.0000000409000000,0.0000000974000000,0.0000781000000000,0.0001390000000000,0.0000801000000000,-0.0000709000000000,-0.0002310000000000,0.1850000000000000,0.0010400000000000,-0.1900000000000000,0.0008240000000000,0.0021600000000000,0.5630000000000000,0.6850000000000000
24800.0000000000000000,-0.0001680000000000,-0.0001500000000000,-0.0001330000000000,-0.0000000311000000,-0.0000000310000000,0.0000782000000000,0.0001390000000000,0.0000802000000000,-0.0000702000000000,-0.0002310000000000,0.1870000000000000,0.0010300000000000,-0.1910000000000000,0.0007600000000000,0.0021300000000000,0.5650000000000000,0.6880000000000000
24900.0000000000000000,-0.0001690000000000,-0.0001510000000000,-0.0001330000000000,-0.0000000300000000,-0.0000000427000000,0.0000783000000000,0.0001390000000000,0.0000803000000000,-0.0000707000000000,-0.0002310000000000,0.1880000000000000,0.0010300000000000,-0.1930000000000000,0.0007600000000000,0.0021000000000000,0.5670000000000000,0.6910000000000000
25000.0000000000000000,-0.0001690000000000,-0.0001510000000000,-0.0001330000000000,-0.0000000315000000,-0.0000000204000000,0.0000784000000000,0.0001390000000000,0.0000805000000000,-0.0000706000000000,-0.0002320000000000,0.1900000000000000,0.0010400000000000,-0.1950000000000000,0.0007760000000000,0.0021300000000000,0.5700000000000000,0.6940000000000000
25100.0000000000000000,-0.0001700000000000,-0.0001520000000000,-0.0001340000000000,-0.0000000399000000,0.0000000883000000,0.0000786000000000,0.0001400000000000,0.0000806000000000,-0.0000716000000000,-0.0002330000000000,0.1920000000000000,0.0010400000000000,-0.1970000000000000,0.0008430000000000,0.0021600000000000,0.5720000000000000,0.6970000000000000
25200.0000000000000000,-0.0001700000000000,-0.0001520000000000,-0.0001340000000000,-0.0000000369000000,0.0000000440000000,0.0000787000000000,0.0001400000000000,0.0000808000000000,-0.0000714000000000,-0.0002330000000000,0.1930000000000000,0.0010400000000000,-0.1980000000000000,0.0008200000000000,0.0021600000000000,0.5740000000000000,0.7000000000000000
25300.0000000000000000,-0.0001710000000000,-0.0001520000000000,-0.0001340000000000,-0.0000000351000000,0.0000000160000000,0.0000788000000000,0.0001400000000000,0.0000809000000000,-0.0000717000000000,-0.0002340000000000,0.1950000000000000,0.0010500000000000,-0.2000000000000000,0.0008050000000000,0.0021200000000000,0.5760000000000000,0.7030000000000000
25400.0000000000000000,-0.0001710000000000,-0.0001520000000000,-0.0001340000000000,-0.0000000287000000,-0.0000000628000000,0.0000789000000000,0.0001400000000000,0.0000811000000000,-0.0000712000000000,-0.0002330000000000,0.1970000000000000,0.0010400000000000,-0.2020000000000000,0.0007650000000000,0.0021000000000000,0.5780000000000000,0.7060000000000000
25500.0000000000000000,-0.0001720000000000,-0.0001540000000000,-0.0001350000000000,-0.0000000383000000,0.0000000869000000,0.0000790000000000,0.0001410000000000,0.0000812000000000,-0.0000725000000000,-0.0002350000000000,0.1990000000000000,0.0010500000000000,-0.2040000000000000,0.0008550000000000,0.0021400000000000,0.5800000000000000,0.7090000000000000
25600.0000000000000000,-0.0001740000000000,-0.0001550000000000,-0.0001360000000000,-0.0000000397000000,0.0000001050000000,0.0000792000000000,0.0001410000000000,0.0000814000000000,-0.0000734000000000,-0.0002360000000000,0.2020000000000000,0.0010600000000000,-0.2070000000000000,0.0008750000000000,0.0021800000000000,0.5820000000000000,0.7130000000000000
25700.0000000000000000,-0.0001740000000000,-0.0001550000000000,-0.0001360000000000,-0.0000000423000000,0.0000001260000000,0.0000793000000000,0.0001410000000000,0.0000816000000000,-0.0000738000000000,-0.0002370000000000,0.2040000000000000,0.0010600000000000,-0.2090000000000000,0.0008890000000000,0.0021600000000000,0.5850000000000000,0.7160000000000000
25800.0000000000000000,-0.0001740000000000,-0.0001540000000000,-0.0001350000000000,-0.0000000276000000,-0.0000000448000000,0.0000795000000000,0.0001420000000000,0.0000817000000000,-0.0000728000000000,-0.0002360000000000,0.2060000000000000,0.0010600000000000,-0.2110000000000000,0.0008020000000000,0.0021100000000000,0.5870000000000000,0.7190000000000000
25900.0000000000000000,-0.0001740000000000,-0.0001550000000000,-0.0001360000000000,-0.0000000264000000,-0.0000000492000000,0.0000796000000000,0.0001420000000000,0.0000819000000000,-0.0000732000000000,-0.0002370000000000,0.2090000000000000,0.0010600000000000,-0.2130000000000000,0.0008070000000000,0.0020900000000000,0.5890000000000000,0.7230000000000000
26000.0000000000000000,-0.0001750000000000,-0.0001550000000000,-0.0001360000000000,-0.0000000335000000,0.0000000419000000,0.0000797000000000,0.0001420000000000,0.0000821000000000,-0.0000736000000000,-0.0002380000000000,0.2110000000000000,0.0010600000000000,-0.2150000000000000,0.0008640000000000,0.0021500000000000,0.5910000000000000,0.7260000000000000
26100.0000000000000000,-0.0001760000000000,-0.0001560000000000,-0.0001370000000000,-0.0000000423000000,0.0000001500000000,0.0000798000000000,0.0001420000000000,0.0000822000000000,-0.0000744000000000,-0.0002390000000000,0.2120000000000000,0.0010700000000000,-0.2170000000000000,0.0009360000000000,0.0021800000000000,0.5930000000000000,0.7280000000000000
26200.0000000000000000,-0.0001760000000000,-0.0001560000000000,-0.0001370000000000,-0.0000000360000000,0.0000000759000000,0.0000799000000000,0.0001430000000000,0.0000823000000000,-0.0000741000000000,-0.0002390000000000,0.2140000000000000,0.0010700000000000,-0.2190000000000000,0.0008970000000000,0.0021600000000000,0.5950000000000000,0.7310000000000000
26300.0000000000000000,-0.0001760000000000,-0.0001560000000000,-0.0001370000000000,-0.0000000260000000,-0.0000000411000000,0.0000800000000000,0.0001430000000000,0.0000824000000000,-0.0000741000000000,-0.0002390000000000,0.2150000000000000,0.0010700000000000,-0.2200000000000000,0.0008340000000000,0.0021000000000000,0.5970000000000000,0.7330000000000000
26400.0000000000000000,-0.0001770000000000,-0.0001570000000000,-0.0001370000000000,-0.0000000214000000,-0.0000001100000000,0.0000801000000000,0.0001430000000000,0.0000826000000000,-0.0000741000000000,-0.0002390000000000,0.2170000000000000,0.0010700000000000,-0.2220000000000000,0.0007990000000000,0.0020900000000000,0.5980000000000000,0.7360000000000000
26500.0000000000000000,-0.0001780000000000,-0.0001580000000000,-0.0001380000000000,-0.0000000352000000,0.0000000454000000,0.0000803000000000,0.0001430000000000,0.0000827000000000,-0.0000750000000000,-0.0002410000000000,0.2190000000000000,0.0010800000000000,-0.2240000000000000,0.0008880000000000,0.0021400000000000,0.6000000000000000,0.7380000000000000
26600.0000000000000000,-0.0001780000000000,-0.0001580000000000,-0.0001380000000000,-0.0000000421000000,0.0000001230000000,0.0000803000000000,0.0001430000000000,0.0000828000000000,-0.0000754000000000,-0.0002410000000000,0.2200000000000000,0.0010800000000000,-0.2250000000000000,0.0009400000000000,0.0021800000000000,0.6020000000000000,0.7410000000000000
26700.0000000000000000,-0.0001790000000000,-0.0001590000000000,-0.0001380000000000,-0.0000000432000000,0.0000001080000000,0.0000804000000000,0.0001440000000000,0.0000830000000000,-0.0000758000000000,-0.0002420000000000,0.2220000000000000,0.0010800000000000,-0.2270000000000000,0.0009270000000000,0.0021700000000000,0.6040000000000000,0.7440000000000000
26800.0000000000000000,-0.0001790000000000,-0.0001580000000000,-0.0001380000000000,-0.0000000319000000,-0.0000000315000000,0.0000806000000000,0.0001440000000000,0.0000831000000000,-0.0000751000000000,-0.0002410000000000,0.2240000000000000,0.0010800000000000,-0.2290000000000000,0.0008470000000000,0.0021100000000000,0.6060000000000000,0.7460000000000000
26900.0000000000000000,-0.0001790000000000,-0.0001580000000000,-0.0001380000000000,-0.0000000260000000,-0.0000000904000000,0.0000806000000000,0.0001440000000000,0.0000833000000000,-0.0000751000000000,-0.0002420000000000,0.2250000000000000,0.0010800000000000,-0.2300000000000000,0.0008240000000000,0.0020900000000000,0.6070000000000000,0.7490000000000000
27000.0000000000000000,-0.0001800000000000,-0.0001590000000000,-0.0001390000000000,-0.0000000353000000,0.0000000212000000,0.0000808000000000,0.0001440000000000,0.0000834000000000,-0.0000761000000000,-0.0002430000000000,0.2270000000000000,0.0010900000000000,-0.2320000000000000,0.0008990000000000,0.0021300000000000,0.6090000000000000,0.7510000000000000
27100.0000000000000000,-0.0001810000000000,-0.0001600000000000,-0.0001390000000000,-0.0000000402000000,0.0000000917000000,0.0000809000000000,0.0001450000000000,0.0000835000000000,-0.0000766000000000,-0.0002440000000000,0.2280000000000000,0.0011000000000000,-0.2330000000000000,0.0009540000000000,0.0021600000000000,0.6110000000000000,0.7540000000000000
27200.0000000000000000,-0.0001820000000000,-0.0001600000000000,-0.0001400000000000,-0.0000000420000000,0.0000000891000000,0.0000810000000000,0.0001450000000000,0.0000837000000000,-0.0000770000000000,-0.0002440000000000,0.2300000000000000,0.0011000000000000,-0.2350000000000000,0.0009460000000000,0.0021500000000000,0.6120000000000000,0.7560000000000000
27300.0000000000000000,-0.0001810000000000,-0.0001600000000000,-0.0001390000000000,-0.0000000402000000,0.0000000276000000,0.0000810000000000,0.0001450000000000,0.0000838000000000,-0.0000765000000000,-0.0002440000000000,0.2310000000000000,0.0010900000000000,-0.2360000000000000,0.0008880000000000,0.0021300000000000,0.6140000000000000,0.7580000000000000
27400.0000000000000000,-0.0001820000000000,-0.0001610000000000,-0.0001390000000000,-0.0000000426000000,0.0000000280000000,0.0000811000000000,0.0001450000000000,0.0000839000000000,-0.0000769000000000,-0.0002450000000000,0.2330000000000000,0.0011000000000000,-0.2380000000000000,0.0008850000000000,0.0021200000000000,0.6150000000000000,0.7610000000000000
27500.0000000000000000,-0.0001830000000000,-0.0001610000000000,-0.0001400000000000,-0.0000000422000000,0.0000000628000000,0.0000813000000000,0.0001460000000000,0.0000840000000000,-0.0000773000000000,-0.0002450000000000,0.2350000000000000,0.0011000000000000,-0.2400000000000000,0.0009320000000000,0.0021500000000000,0.6170000000000000,0.7630000000000000
27600.0000000000000000,-0.0001840000000000,-0.0001620000000000,-0.0001410000000000,-0.0000000455000000,0.0000001070000000,0.0000814000000000,0.0001460000000000,0.0000842000000000,-0.0000782000000000,-0.0002470000000000,0.2360000000000000,0.0011100000000000,-0.2410000000000000,0.0009760000000000,0.0021500000000000,0.6190000000000000,0.7660000000000000
27700.0000000000000000,-0.0001840000000000,-0.0001620000000000,-0.0001400000000000,-0.0000000466000000,0.0000000928000000,0.0000815000000000,0.0001460000000000,0.0000843000000000,-0.0000779000000000,-0.0002470000000000,0.2380000000000000,0.0011100000000000,-0.2440000000000000,0.0009560000000000,0.0021500000000000,0.6210000000000000,0.7690000000000000
27800.0000000000000000,-0.0001840000000000,-0.0001620000000000,-0.0001410000000000,-0.0000000481000000,0.0000000879000000,0.0000816000000000,0.0001460000000000,0.0000845000000000,-0.0000781000000000,-0.0002470000000000,0.2410000000000000,0.0011100000000000,-0.2460000000000000,0.0009440000000000,0.0021400000000000,0.6230000000000000,0.7720000000000000
27900.0000000000000000,-0.0001850000000000,-0.0001630000000000,-0.0001410000000000,-0.0000000429000000,0.0000000481000000,0.0000817000000000,0.0001470000000000,0.0000847000000000,-0.0000782000000000,-0.0002470000000000,0.2430000000000000,0.0011100000000000,-0.2480000000000000,0.0009370000000000,0.0021400000000000,0.6250000000000000,0.7750000000000000
28000.0000000000000000,-0.0001860000000000,-0.0001640000000000,-0.0001420000000000,-0.0000000466000000,0.0000000946000000,0.0000819000000000,0.0001470000000000,0.0000848000000000,-0.0000792000000000,-0.0002490000000000,0.2450000000000000,0.0011200000000000,-0.2500000000000000,0.0009800000000000,0.0021500000000000,0.6270000000000000,0.7780000000000000
28100.0000000000000000,-0.0001870000000000,-0.0001640000000000,-0.0001420000000000,-0.0000000483000000,0.0000000715000000,0.0000820000000000,0.0001470000000000,0.0000850000000000,-0.0000794000000000,-0.0002490000000000,0.2480000000000000,0.0011300000000000,-0.2540000000000000,0.0009690000000000,0.0021600000000000,0.6290000000000000,0.7820000000000000
28200.0000000000000000,-0.0001870000000000,-0.0001640000000000,-0.0001420000000000,-0.0000000526000000,0.0000000845000000,0.0000822000000000,0.0001480000000000,0.0000853000000000,-0.0000793000000000,-0.0002500000000000,0.2520000000000000,0.0011300000000000,-0.2570000000000000,0.0009640000000000,0.0021500000000000,0.6310000000000000,0.7860000000000000
28300.0000000000000000,-0.0001880000000000,-0.0001650000000000,-0.0001430000000000,-0.0000000510000000,0.0000000840000000,0.0000824000000000,0.0001480000000000,0.0000855000000000,-0.0000799000000000,-0.0002510000000000,0.2560000000000000,0.0011300000000000,-0.2610000000000000,0.0009670000000000,0.0021600000000000,0.6340000000000000,0.7900000000000000
28400.0000000000000000,-0.0001900000000000,-0.0001670000000000,-0.0001440000000000,-0.0000000602000000,0.0000001640000000,0.0000827000000000,0.0001490000000000,0.0000858000000000,-0.0000811000000000,-0.0002530000000000,0.2610000000000000,0.0011500000000000,-0.2660000000000000,0.0010200000000000,0.0021800000000000,0.6360000000000000,0.7950000000000000
28500.0000000000000000,-0.0001920000000000,-0.0001690000000000,-0.0001460000000000,-0.0000000675000000,0.0000001980000000,0.0000830000000000,0.0001490000000000,0.0000861000000000,-0.0000832000000000,-0.0002550000000000,0.2680000000000000,0.0011600000000000,-0.2730000000000000,0.0010500000000000,0.0022100000000000,0.6400000000000000,0.8020000000000000
28600.0000000000000000,-0.0001940000000000,-0.0001710000000000,-0.0001480000000000,-0.0000000691000000,0.0000001480000000,0.0000834000000000,0.0001500000000000,0.0000865000000000,-0.0000849000000000,-0.0002580000000000,0.2750000000000000,0.0011700000000000,-0.2800000000000000,0.0010200000000000,0.0021900000000000,0.6430000000000000,0.8090000000000000
28700.0000000000000000,-0.0001950000000000,-0.0001720000000000,-0.0001490000000000,-0.0000000619000000,0.0000000618000000,0.0000836000000000,0.0001500000000000,0.0000868000000000,-0.0000851000000000,-0.0002590000000000,0.2800000000000000,0.0011800000000000,-0.2850000000000000,0.0009740000000000,0.0021800000000000,0.6460000000000000,0.8140000000000000
28800.0000000000000000,-0.0001960000000000,-0.0001730000000000,-0.0001500000000000,-0.0000000695000000,0.0000001540000000,0.0000838000000000,0.0001510000000000,0.0000870000000000,-0.0000861000000000,-0.0002600000000000,0.2830000000000000,0.0011900000000000,-0.2880000000000000,0.0010300000000000,0.0022000000000000,0.6480000000000000,0.8170000000000000
28900.0000000000000000,-0.0001970000000000,-0.0001730000000000,-0.0001500000000000,-0.0000000807000000,0.0000002660000000,0.0000840000000000,0.0001510000000000,0.0000872000000000,-0.0000865000000000,-0.0002610000000000,0.2850000000000000,0.0012000000000000,-0.2910000000000000,0.0011200000000000,0.0022500000000000,0.6490000000000000,0.8200000000000000
29000.0000000000000000,-0.0001980000000000,-0.0001740000000000,-0.0001510000000000,-0.0000000764000000,0.0000002450000000,0.0000841000000000,0.0001510000000000,0.0000873000000000,-0.0000869000000000,-0.0002620000000000,0.2880000000000000,0.0012000000000000,-0.2930000000000000,0.0011300000000000,0.0022400000000000,0.6510000000000000,0.8230000000000000
29100.0000000000000000,-0.0001970000000000,-0.0001730000000000,-0.0001500000000000,-0.0000000611000000,0.0000001000000000,0.0000842000000000,0.0001520000000000,0.0000875000000000,-0.0000862000000000,-0.0002610000000000,0.2900000000000000,0.0012000000000000,-0.2960000000000000,0.0010500000000000,0.0022100000000000,0.6530000000000000,0.8260000000000000
29200.0000000000000000,-0.0001970000000000,-0.0001730000000000,-0.0001500000000000,-0.0000000562000000,0.0000000631000000,0.0000843000000000,0.0001520000000000,0.0000876000000000,-0.0000859000000000,-0.0002610000000000,0.2920000000000000,0.0011900000000000,-0.2980000000000000,0.0010200000000000,0.0021800000000000,0.6540000000000000,0.8290000000000000
29300.0000000000000000,-0.0001980000000000,-0.0001740000000000,-0.0001500000000000,-0.0000000596000000,0.0000001080000000,0.0000844000000000,0.0001520000000000,0.0000878000000000,-0.0000864000000000,-0.0002620000000000,0.2940000000000000,0.0012000000000000,-0.3000000000000000,0.0010700000000000,0.0022100000000000,0.6560000000000000,0.8320000000000000
29400.0000000000000000,-0.0001990000000000,-0.0001750000000000,-0.0001510000000000,-0.0000000718000000,0.0000002470000000,0.0000846000000000,0.0001520000000000,0.0000879000000000,-0.0000873000000000,-0.0002630000000000,0.2970000000000000,0.0012100000000000,-0.3020000000000000,0.0011700000000000,0.0022300000000000,0.6580000000000000,0.8340000000000000
29500.0000000000000000,-0.0002000000000000,-0.0001750000000000,-0.0001510000000000,-0.0000000717000000,0.0000002440000000,0.0000847000000000,0.0001530000000000,0.0000881000000000,-0.0000871000000000,-0.0002630000000000,0.2990000000000000,0.0012100000000000,-0.3040000000000000,0.0011700000000000,0.0022400000000000,0.6590000000000000,0.8370000000000000
29600.0000000000000000,-0.0001990000000000,-0.0001750000000000,-0.0001500000000000,-0.0000000585000000,0.0000001170000000,0.0000848000000000,0.0001530000000000,0.0000883000000000,-0.0000867000000000,-0.0002630000000000,0.3010000000000000,0.0012000000000000,-0.3060000000000000,0.0011000000000000,0.0021900000000000,0.6610000000000000,0.8400000000000000
29700.0000000000000000,-0.0001990000000000,-0.0001740000000000,-0.0001500000000000,-0.0000000445000000,0.0000000091200000,0.0000849000000000,0.0001530000000000,0.0000884000000000,-0.0000863000000000,-0.0002630000000000,0.3030000000000000,0.0012000000000000,-0.3090000000000000,0.0010500000000000,0.0021700000000000,0.6620000000000000,0.8420000000000000
29800.0000000000000000,-0.0002000000000000,-0.0001750000000000,-0.0001510000000000,-0.0000000534000000,0.0000001070000000,0.0000850000000000,0.0001530000000000,0.0000886000000000,-0.0000870000000000,-0.0002640000000000,0.3050000000000000,0.0012100000000000,-0.3110000000000000,0.0011200000000000,0.0021900000000000,0.6640000000000000,0.8450000000000000
29900.0000000000000000,-0.0002010000000000,-0.0001760000000000,-0.0001520000000000,-0.0000000626000000,0.0000002020000000,0.0000851000000000,0.0001540000000000,0.0000887000000000,-0.0000878000000000,-0.0002650000000000,0.3070000000000000,0.0012100000000000,-0.3130000000000000,0.0011800000000000,0.0022300000000000,0.6650000000000000,0.8480000000000000
30000.0000000000000000,-0.0002020000000000,-0.0001770000000000,-0.0001520000000000,-0.0000000566000000,0.0000001650000000,0.0000852000000000,0.0001540000000000,0.0000889000000000,-0.0000882000000000,-0.0002660000000000,0.3100000000000000,0.0012200000000000,-0.3150000000000000,0.0011800000000000,0.0022000000000000,0.6670000000000000,0.8500000000000000
30100.0000000000000000,-0.0002020000000000,-0.0001760000000000,-0.0001510000000000,-0.0000000398000000,0.0000000017200000,0.0000854000000000,0.0001540000000000,0.0000890000000000,-0.0000876000000000,-0.0002660000000000,0.3120000000000000,0.0012100000000000,-0.3180000000000000,0.0010900000000000,0.0021700000000000,0.6680000000000000,0.8530000000000000
30200.0000000000000000,-0.0002030000000000,-0.0001770000000000,-0.0001520000000000,-0.0000000383000000,-0.0000000257000000,0.0000855000000000,0.0001550000000000,0.0000892000000000,-0.0000881000000000,-0.0002670000000000,0.3150000000000000,0.0012200000000000,-0.3200000000000000,0.0010800000000000,0.0021600000000000,0.6700000000000000,0.8560000000000000
30300.0000000000000000,-0.0002030000000000,-0.0001770000000000,-0.0001520000000000,-0.0000000452000000,0.0000000306000000,0.0000856000000000,0.0001550000000000,0.0000894000000000,-0.0000878000000000,-0.0002670000000000,0.3170000000000000,0.0012200000000000,-0.3230000000000000,0.0011200000000000,0.0021800000000000,0.6710000000000000,0.8590000000000000
30400.0000000000000000,-0.0002040000000000,-0.0001780000000000,-0.0001520000000000,-0.0000000592000000,0.0000001440000000,0.0000857000000000,0.0001550000000000,0.0000895000000000,-0.0000885000000000,-0.0002680000000000,0.3190000000000000,0.0012300000000000,-0.3250000000000000,0.0011900000000000,0.0022000000000000,0.6730000000000000,0.8610000000000000
30500.0000000000000000,-0.0002040000000000,-0.0001780000000000,-0.0001520000000000,-0.0000000624000000,0.0000001580000000,0.0000859000000000,0.0001550000000000,0.0000897000000000,-0.0000884000000000,-0.0002680000000000,0.3220000000000000,0.0012300000000000,-0.3270000000000000,0.0012000000000000,0.0022100000000000,0.6740000000000000,0.8640000000000000
30600.0000000000000000,-0.0002050000000000,-0.0001780000000000,-0.0001530000000000,-0.0000000449000000,0.0000000483000000,0.0000860000000000,0.0001560000000000,0.0000898000000000,-0.0000889000000000,-0.0002690000000000,0.3240000000000000,0.0012200000000000,-0.3290000000000000,0.0011500000000000,0.0021700000000000,0.6760000000000000,0.8660000000000000
30700.0000000000000000,-0.0002040000000000,-0.0001780000000000,-0.0001520000000000,-0.0000000400000000,-0.0000000136000000,0.0000861000000000,0.0001560000000000,0.0000900000000000,-0.0000883000000000,-0.0002680000000000,0.3260000000000000,0.0012200000000000,-0.3310000000000000,0.0011200000000000,0.0021600000000000,0.6770000000000000,0.8690000000000000
30800.0000000000000000,-0.0002060000000000,-0.0001800000000000,-0.0001530000000000,-0.0000000452000000,0.0000000665000000,0.0000862000000000,0.0001560000000000,0.0000902000000000,-0.0000896000000000,-0.0002700000000000,0.3290000000000000,0.0012300000000000,-0.3350000000000000,0.0011800000000000,0.0021800000000000,0.6780000000000000,0.8720000000000000
30900.0000000000000000,-0.0002080000000000,-0.0001820000000000,-0.0001550000000000,-0.0000000615000000,0.0000001500000000,0.0000866000000000,0.0001570000000000,0.0000905000000000,-0.0000913000000000,-0.0002720000000000,0.3360000000000000,0.0012500000000000,-0.3420000000000000,0.0012200000000000,0.0022000000000000,0.6810000000000000,0.8780000000000000
31000.0000000000000000,-0.0002120000000000,-0.0001850000000000,-0.0001580000000000,-0.0000000880000000,0.0000002540000000,0.0000871000000000,0.0001580000000000,0.0000911000000000,-0.0000940000000000,-0.0002760000000000,0.3480000000000000,0.0012800000000000,-0.3540000000000000,0.0012500000000000,0.0022300000000000,0.6830000000000000,0.8870000000000000
31100.0000000000000000,-0.0002140000000000,-0.0001870000000000,-0.0001610000000000,-0.0000000916000000,0.0000002390000000,0.0000875000000000,0.0001590000000000,0.0000915000000000,-0.0000961000000000,-0.0002790000000000,0.3570000000000000,0.0012900000000000,-0.3630000000000000,0.0012300000000000,0.0022500000000000,0.6850000000000000,0.8940000000000000
31200.0000000000000000,-0.0002160000000000,-0.0001880000000000,-0.0001620000000000,-0.0000000959000000,0.0000002570000000,0.0000878000000000,0.0001590000000000,0.0000918000000000,-0.0000969000000000,-0.0002800000000000,0.3620000000000000,0.0013100000000000,-0.3670000000000000,0.0012600000000000,0.0022500000000000,0.6870000000000000,0.8980000000000000
31300.0000000000000000,-0.0002170000000000,-0.0001890000000000,-0.0001630000000000,-0.0000000993000000,0.0000002970000000,0.0000879000000000,0.0001590000000000,0.0000920000000000,-0.0000976000000000,-0.0002820000000000,0.3650000000000000,0.0013100000000000,-0.3710000000000000,0.0012900000000000,0.0022700000000000,0.6880000000000000,0.9010000000000000
31400.0000000000000000,-0.0002160000000000,-0.0001890000000000,-0.0001620000000000,-0.0000000954000000,0.0000002650000000,0.0000880000000000,0.0001600000000000,0.0000921000000000,-0.0000970000000000,-0.0002810000000000,0.3670000000000000,0.0013100000000000,-0.3730000000000000,0.0012900000000000,0.0022500000000000,0.6890000000000000,0.9040000000000000
31500.0000000000000000,-0.0002170000000000,-0.0001890000000000,-0.0001620000000000,-0.0000000874000000,0.0000001940000000,0.0000881000000000,0.0001600000000000,0.0000923000000000,-0.0000970000000000,-0.0002810000000000,0.3690000000000000,0.0013100000000000,-0.3750000000000000,0.0012600000000000,0.0022400000000000,0.6910000000000000,0.9060000000000000
31600.0000000000000000,-0.0002160000000000,-0.0001890000000000,-0.0001610000000000,-0.0000000819000000,0.0000001580000000,0.0000882000000000,0.0001600000000000,0.0000924000000000,-0.0000966000000000,-0.0002810000000000,0.3710000000000000,0.0013100000000000,-0.3770000000000000,0.0012600000000000,0.0022200000000000,0.6920000000000000,0.9080000000000000
31700.0000000000000000,-0.0002170000000000,-0.0001890000000000,-0.0001620000000000,-0.0000000831000000,0.0000001760000000,0.0000883000000000,0.0001600000000000,0.0000925000000000,-0.0000968000000000,-0.0002820000000000,0.3730000000000000,0.0013100000000000,-0.3790000000000000,0.0012800000000000,0.0022300000000000,0.6930000000000000,0.9100000000000000
31800.0000000000000000,-0.0002170000000000,-0.0001890000000000,-0.0001620000000000,-0.0000000882000000,0.0000002140000000,0.0000884000000000,0.0001610000000000,0.0000927000000000,-0.0000969000000000,-0.0002820000000000,0.3750000000000000,0.0013100000000000,-0.3800000000000000,0.0013200000000000,0.0022500000000000,0.6940000000000000,0.9120000000000000
31900.0000000000000000,-0.0002170000000000,-0.0001890000000000,-0.0001610000000000,-0.0000000839000000,0.0000001800000000,0.0000885000000000,0.0001610000000000,0.0000928000000000,-0.0000964000000000,-0.0002820000000000,0.3760000000000000,0.0013100000000000,-0.3820000000000000,0.0013100000000000,0.0022400000000000,0.6950000000000000,0.9140000000000000
32000.0000000000000000,-0.0002170000000000,-0.0001890000000000,-0.0001610000000000,-0.0000000769000000,0.0000001230000000,0.0000886000000000,0.0001610000000000,0.0000929000000000,-0.0000962000000000,-0.0002820000000000,0.3780000000000000,0.0013100000000000,-0.3840000000000000,0.0012800000000000,0.0022200000000000,0.6960000000000000,0.9160000000000000
32100.0000000000000000,-0.0002170000000000,-0.0001890000000000,-0.0001610000000000,-0.0000000760000000,0.0000001070000000,0.0000887000000000,0.0001610000000000,0.0000931000000000,-0.0000959000000000,-0.0002820000000000,0.3800000000000000,0.0013000000000000,-0.3860000000000000,0.0012700000000000,0.0022100000000000,0.6970000000000000,0.9180000000000000
32200.0000000000000000,-0.0002180000000000,-0.0001890000000000,-0.0001610000000000,-0.0000000829000000,0.0000001630000000,0.0000887000000000,0.0001610000000000,0.0000932000000000,-0.0000963000000000,-0.0002830000000000,0.3820000000000000,0.0013100000000000,-0.3880000000000000,0.0013100000000000,0.0022200000000000,0.6980000000000000,0.9200000000000000
32300.0000000000000000,-0.0002200000000000,-0.0001920000000000,-0.0001630000000000,-0.0000000942000000,0.0000001960000000,0.0000887000000000,0.0001610000000000,0.0000932000000000,-0.0000987000000000,-0.0002850000000000,0.3840000000000000,0.0013200000000000,-0.3900000000000000,0.0013500000000000,0.0022300000000000,0.6990000000000000,0.9220000000000000
32400.0000000000000000,-0.0002180000000000,-0.0001900000000000,-0.0001610000000000,-0.0000000918000000,0.0000001990000000,0.0000888000000000,0.0001620000000000,0.0000934000000000,-0.0000964000000000,-0.0002830000000000,0.3850000000000000,0.0013100000000000,-0.3910000000000000,0.0013500000000000,0.0022300000000000,0.7000000000000000,0.9240000000000000
32500.0000000000000000,-0.0002180000000000,-0.0001890000000000,-0.0001600000000000,-0.0000000806000000,0.0000001470000000,0.0000890000000000,0.0001620000000000,0.0000936000000000,-0.0000956000000000,-0.0002830000000000,0.3870000000000000,0.0013000000000000,-0.3930000000000000,0.0013300000000000,0.0022200000000000,0.7000000000000000,0.9260000000000000
32600.0000000000000000,-0.0002180000000000,-0.0001890000000000,-0.0001600000000000,-0.0000000734000000,0.0000000797000000,0.0000891000000000,0.0001620000000000,0.0000937000000000,-0.0000951000000000,-0.0002820000000000,0.3890000000000000,0.0013000000000000,-0.3940000000000000,0.0012900000000000,0.0022000000000000,0.7010000000000000,0.9270000000000000
32700.0000000000000000,-0.0002190000000000,-0.0001890000000000,-0.0001600000000000,-0.0000000633000000,0.0000000318000000,0.0000892000000000,0.0001630000000000,0.0000939000000000,-0.0000956000000000,-0.0002830000000000,0.3910000000000000,0.0013100000000000,-0.3970000000000000,0.0012800000000000,0.0021900000000000,0.7030000000000000,0.9300000000000000
32800.0000000000000000,-0.0002200000000000,-0.0001910000000000,-0.0001610000000000,-0.0000000602000000,0.0000000781000000,0.0000893000000000,0.0001630000000000,0.0000940000000000,-0.0000967000000000,-0.0002850000000000,0.3930000000000000,0.0013100000000000,-0.3990000000000000,0.0013400000000000,0.0022100000000000,0.7030000000000000,0.9320000000000000
32900.0000000000000000,-0.0002200000000000,-0.0001900000000000,-0.0001600000000000,-0.0000000946000000,0.0000002290000000,0.0000894000000000,0.0001630000000000,0.0000942000000000,-0.0000959000000000,-0.0002840000000000,0.3960000000000000,0.0013200000000000,-0.4020000000000000,0.0014100000000000,0.0022200000000000,0.7040000000000000,0.9350000000000000
33000.0000000000000000,-0.0002210000000000,-0.0001910000000000,-0.0001620000000000,-0.0000000851000000,0.0000001750000000,0.0000895000000000,0.0001630000000000,0.0000943000000000,-0.0000970000000000,-0.0002860000000000,0.3980000000000000,0.0013100000000000,-0.4040000000000000,0.0013900000000000,0.0022200000000000,0.7050000000000000,0.9360000000000000
33100.0000000000000000,-0.0002200000000000,-0.0001900000000000,-0.0001610000000000,-0.0000000820000000,0.0000001160000000,0.0000896000000000,0.0001640000000000,0.0000944000000000,-0.0000961000000000,-0.0002850000000000,0.3990000000000000,0.0013100000000000,-0.4050000000000000,0.0013400000000000,0.0022000000000000,0.7060000000000000,0.9380000000000000
33200.0000000000000000,-0.0002200000000000,-0.0001900000000000,-0.0001600000000000,-0.0000000755000000,0.0000000498000000,0.0000896000000000,0.0001640000000000,0.0000945000000000,-0.0000956000000000,-0.0002850000000000,0.4010000000000000,0.0013100000000000,-0.4070000000000000,0.0013000000000000,0.0021900000000000,0.7070000000000000,0.9400000000000000
33300.0000000000000000,-0.0002210000000000,-0.0001900000000000,-0.0001600000000000,-0.0000000725000000,0.0000000522000000,0.0000897000000000,0.0001640000000000,0.0000946000000000,-0.0000958000000000,-0.0002850000000000,0.4020000000000000,0.0013200000000000,-0.4080000000000000,0.0013100000000000,0.0021800000000000,0.7070000000000000,0.9410000000000000
33400.0000000000000000,-0.0002210000000000,-0.0001910000000000,-0.0001610000000000,-0.0000000795000000,0.0000001160000000,0.0000898000000000,0.0001640000000000,0.0000947000000000,-0.0000962000000000,-0.0002860000000000,0.4030000000000000,0.0013100000000000,-0.4090000000000000,0.0013600000000000,0.0022000000000000,0.7080000000000000,0.9430000000000000
33500.0000000000000000,-0.0002220000000000,-0.0001920000000000,-0.0001620000000000,-0.0000000957000000,0.0000002270000000,0.0000898000000000,0.0001640000000000,0.0000948000000000,-0.0000972000000000,-0.0002870000000000,0.4040000000000000,0.0013200000000000,-0.4100000000000000,0.0014200000000000,0.0022200000000000,0.7090000000000000,0.9440000000000000
33600.0000000000000000,-0.0002220000000000,-0.0001920000000000,-0.0001610000000000,-0.0000000934000000,0.0000001950000000,0.0000899000000000,0.0001640000000000,0.0000949000000000,-0.0000969000000000,-0.0002870000000000,0.4050000000000000,0.0013200000000000,-0.4110000000000000,0.0014100000000000,0.0022200000000000,0.7100000000000000,0.9450000000000000
33700.0000000000000000,-0.0002220000000000,-0.0001910000000000,-0.0001600000000000,-0.0000000838000000,0.0000001040000000,0.0000899000000000,0.0001650000000000,0.0000950000000000,-0.0000961000000000,-0.0002860000000000,0.4060000000000000,0.0013200000000000,-0.4120000000000000,0.0013500000000000,0.0022000000000000,0.7100000000000000,0.9470000000000000
33800.0000000000000000,-0.0002220000000000,-0.0001910000000000,-0.0001600000000000,-0.0000000755000000,0.0000000396000000,0.0000900000000000,0.0001650000000000,0.0000951000000000,-0.0000957000000000,-0.0002860000000000,0.4070000000000000,0.0013100000000000,-0.4130000000000000,0.0013200000000000,0.0021900000000000,0.7110000000000000,0.9480000000000000
33900.0000000000000000,-0.0002230000000000,-0.0001920000000000,-0.0001610000000000,-0.0000000855000000,0.0000000936000000,0.0000900000000000,0.0001650000000000,0.0000952000000000,-0.0000968000000000,-0.0002870000000000,0.4080000000000000,0.0013200000000000,-0.4140000000000000,0.0013300000000000,0.0022000000000000,0.7120000000000000,0.9490000000000000
34000.0000000000000000,-0.0002230000000000,-0.0001920000000000,-0.0001610000000000,-0.0000000959000000,0.0000001720000000,0.0000901000000000,0.0001650000000000,0.0000953000000000,-0.0000968000000000,-0.0002870000000000,0.4090000000000000,0.0013200000000000,-0.4160000000000000,0.0013900000000000,0.0022100000000000,0.7130000000000000,0.9510000000000000
34100.0000000000000000,-0.0002230000000000,-0.0001920000000000,-0.0001610000000000,-0.0000001010000000,0.0000001950000000,0.0000899000000000,0.0001650000000000,0.0000952000000000,-0.0000969000000000,-0.0002870000000000,0.4100000000000000,0.0013300000000000,-0.4160000000000000,0.0014100000000000,0.0022200000000000,0.7130000000000000,0.9520000000000000
34200.0000000000000000,-0.0002240000000000,-0.0001930000000000,-0.0001610000000000,-0.0000000978000000,0.0000001940000000,0.0000901000000000,0.0001650000000000,0.0000954000000000,-0.0000974000000000,-0.0002880000000000,0.4110000000000000,0.0013300000000000,-0.4170000000000000,0.0014100000000000,0.0022100000000000,0.7140000000000000,0.9530000000000000
34300.0000000000000000,-0.0002240000000000,-0.0001920000000000,-0.0001610000000000,-0.0000000876000000,0.0000000793000000,0.0000901000000000,0.0001650000000000,0.0000954000000000,-0.0000967000000000,-0.0002880000000000,0.4120000000000000,0.0013200000000000,-0.4180000000000000,0.0013500000000000,0.0021900000000000,0.7140000000000000,0.9540000000000000
34400.0000000000000000,-0.0002240000000000,-0.0001920000000000,-0.0001610000000000,-0.0000000859000000,0.0000000515000000,0.0000902000000000,0.0001660000000000,0.0000956000000000,-0.0000969000000000,-0.0002880000000000,0.4130000000000000,0.0013200000000000,-0.4190000000000000,0.0013200000000000,0.0021800000000000,0.7150000000000000,0.9550000000000000
34500.0000000000000000,-0.0002240000000000,-0.0001920000000000,-0.0001610000000000,-0.0000000956000000,0.0000000931000000,0.0000903000000000,0.0001660000000000,0.0000957000000000,-0.0000969000000000,-0.0002880000000000,0.4140000000000000,0.0013200000000000,-0.4200000000000000,0.0013400000000000,0.0021900000000000,0.7160000000000000,0.9570000000000000
34600.0000000000000000,-0.0002250000000000,-0.0001930000000000,-0.0001610000000000,-0.0000001070000000,0.0000001910000000,0.0000904000000000,0.0001660000000000,0.0000958000000000,-0.0000973000000000,-0.0002890000000000,0.4160000000000000,0.0013300000000000,-0.4220000000000000,0.0014000000000000,0.0022100000000000,0.7170000000000000,0.9580000000000000
34700.0000000000000000,-0.0002260000000000,-0.0001930000000000,-0.0001610000000000,-0.0000001150000000,0.0000002450000000,0.0000904000000000,0.0001660000000000,0.0000959000000000,-0.0000976000000000,-0.0002890000000000,0.4170000000000000,0.0013400000000000,-0.4230000000000000,0.0014500000000000,0.0022200000000000,0.7170000000000000,0.9600000000000000
34800.0000000000000000,-0.0002260000000000,-0.0001930000000000,-0.0001610000000000,-0.0000001100000000,0.0000001980000000,0.0000905000000000,0.0001660000000000,0.0000960000000000,-0.0000973000000000,-0.0002890000000000,0.4180000000000000,0.0013400000000000,-0.4240000000000000,0.0014300000000000,0.0022100000000000,0.7180000000000000,0.9610000000000000
34900.0000000000000000,-0.0002250000000000,-0.0001930000000000,-0.0001610000000000,-0.0000000981000000,0.0000000999000000,0.0000905000000000,0.0001660000000000,0.0000961000000000,-0.0000970000000000,-0.0002890000000000,0.4190000000000000,0.0013400000000000,-0.4250000000000000,0.0013600000000000,0.0021900000000000,0.7190000000000000,0.9630000000000000
35000.0000000000000000,-0.0002260000000000,-0.0001930000000000,-0.0001610000000000,-0.0000000918000000,0.0000000460000000,0.0000906000000000,0.0001670000000000,0.0000962000000000,-0.0000970000000000,-0.0002890000000000,0.4210000000000000,0.0013300000000000,-0.4270000000000000,0.0013200000000000,0.0021800000000000,0.7190000000000000,0.9640000000000000
35100.0000000000000000,-0.0002260000000000,-0.0001930000000000,-0.0001610000000000,-0.0000000960000000,0.0000000783000000,0.0000906000000000,0.0001670000000000,0.0000963000000000,-0.0000973000000000,-0.0002900000000000,0.4220000000000000,0.0013300000000000,-0.4280000000000000,0.0013400000000000,0.0021800000000000,0.7200000000000000,0.9650000000000000
35200.0000000000000000,-0.0002280000000000,-0.0001950000000000,-0.0001620000000000,-0.0000001180000000,0.0000002360000000,0.0000907000000000,0.0001670000000000,0.0000964000000000,-0.0000985000000000,-0.0002910000000000,0.4230000000000000,0.0013400000000000,-0.4290000000000000,0.0014300000000000,0.0022100000000000,0.7210000000000000,0.9670000000000000
35300.0000000000000000,-0.0002280000000000,-0.0001950000000000,-0.0001630000000000,-0.0000001300000000,0.0000003190000000,0.0000908000000000,0.0001670000000000,0.0000965000000000,-0.0000990000000000,-0.0002920000000000,0.4240000000000000,0.0013400000000000,-0.4300000000000000,0.0014900000000000,0.0022200000000000,0.7210000000000000,0.9680000000000000
35400.0000000000000000,-0.0002280000000000,-0.0001940000000000,-0.0001620000000000,-0.0000001230000000,0.0000002650000000,0.0000908000000000,0.0001670000000000,0.0000966000000000,-0.0000980000000000,-0.0002910000000000,0.4260000000000000,0.0013400000000000,-0.4320000000000000,0.0014700000000000,0.0022100000000000,0.7220000000000000,0.9690000000000000
35500.0000000000000000,-0.0002270000000000,-0.0001940000000000,-0.0001610000000000,-0.0000001010000000,0.0000000974000000,0.0000908000000000,0.0001680000000000,0.0000967000000000,-0.0000973000000000,-0.0002910000000000,0.4270000000000000,0.0013300000000000,-0.4330000000000000,0.0013700000000000,0.0021800000000000,0.7230000000000000,0.9710000000000000
35600.0000000000000000,-0.0002270000000000,-0.0001940000000000,-0.0001600000000000,-0.0000000917000000,0.0000000093100000,0.0000909000000000,0.0001680000000000,0.0000968000000000,-0.0000968000000000,-0.0002900000000000,0.4280000000000000,0.0013400000000000,-0.4340000000000000,0.0013100000000000,0.0021700000000000,0.7230000000000000,0.9720000000000000
35700.0000000000000000,-0.0002270000000000,-0.0001940000000000,-0.0001600000000000,-0.0000000999000000,0.0000000626000000,0.0000909000000000,0.0001680000000000,0.0000969000000000,-0.0000970000000000,-0.0002910000000000,0.4290000000000000,0.0013400000000000,-0.4350000000000000,0.0013400000000000,0.0021800000000000,0.7240000000000000,0.9730000000000000
35800.0000000000000000,-0.0002290000000000,-0.0001950000000000,-0.0001610000000000,-0.0000001170000000,0.0000001800000000,0.0000910000000000,0.0001680000000000,0.0000970000000000,-0.0000979000000000,-0.0002920000000000,0.4300000000000000,0.0013500000000000,-0.4360000000000000,0.0014200000000000,0.0022000000000000,0.7240000000000000,0.9750000000000000
35900.0000000000000000,-0.0002300000000000,-0.0001960000000000,-0.0001630000000000,-0.0000001360000000,0.0000002980000000,0.0000911000000000,0.0001680000000000,0.0000971000000000,-0.0000993000000000,-0.0002940000000000,0.4320000000000000,0.0013600000000000,-0.4380000000000000,0.0014800000000000,0.0022100000000000,0.7250000000000000,0.9760000000000000
36000.0000000000000000,-0.0002300000000000,-0.0001960000000000,-0.0001620000000000,-0.0000001310000000,0.0000002600000000,0.0000912000000000,0.0001680000000000,0.0000972000000000,-0.0000990000000000,-0.0002930000000000,0.4340000000000000,0.0013500000000000,-0.4400000000000000,0.0014600000000000,0.0022000000000000,0.7260000000000000,0.9780000000000000
36100.0000000000000000,-0.0002310000000000,-0.0001960000000000,-0.0001630000000000,-0.0000001230000000,0.0000001940000000,0.0000912000000000,0.0001690000000000,0.0000974000000000,-0.0000992000000000,-0.0002940000000000,0.4360000000000000,0.0013500000000000,-0.4420000000000000,0.0014100000000000,0.0021900000000000,0.7260000000000000,0.9800000000000000
36200.0000000000000000,-0.0002310000000000,-0.0001960000000000,-0.0001620000000000,-0.0000001120000000,0.0000001220000000,0.0000914000000000,0.0001690000000000,0.0000976000000000,-0.0000990000000000,-0.0002940000000000,0.4390000000000000,0.0013500000000000,-0.4450000000000000,0.0013800000000000,0.0021800000000000,0.7270000000000000,0.9820000000000000
36300.0000000000000000,-0.0002320000000000,-0.0001980000000000,-0.0001640000000000,-0.0000001210000000,0.0000001730000000,0.0000915000000000,0.0001690000000000,0.0000977000000000,-0.0001000000000000,-0.0002960000000000,0.4420000000000000,0.0013600000000000,-0.4480000000000000,0.0014000000000000,0.0021800000000000,0.7270000000000000,0.9840000000000000
36400.0000000000000000,-0.0002320000000000,-0.0001970000000000,-0.0001630000000000,-0.0000001320000000,0.0000002410000000,0.0000917000000000,0.0001700000000000,0.0000980000000000,-0.0000997000000000,-0.0002960000000000,0.4460000000000000,0.0013700000000000,-0.4520000000000000,0.0014500000000000,0.0021900000000000,0.7280000000000000,0.9870000000000000
36500.0000000000000000,-0.0002340000000000,-0.0001990000000000,-0.0001650000000000,-0.0000001410000000,0.0000003000000000,0.0000919000000000,0.0001700000000000,0.0000982000000000,-0.0001010000000000,-0.0002970000000000,0.4500000000000000,0.0013800000000000,-0.4560000000000000,0.0014900000000000,0.0022000000000000,0.7280000000000000,0.9900000000000000
36600.0000000000000000,-0.0002340000000000,-0.0001990000000000,-0.0001650000000000,-0.0000001370000000,0.0000002710000000,0.0000920000000000,0.0001700000000000,0.0000984000000000,-0.0001010000000000,-0.0002980000000000,0.4520000000000000,0.0013700000000000,-0.4590000000000000,0.0014800000000000,0.0022000000000000,0.7290000000000000,0.9920000000000000
36700.0000000000000000,-0.0002340000000000,-0.0001990000000000,-0.0001640000000000,-0.0000001260000000,0.0000002000000000,0.0000921000000000,0.0001710000000000,0.0000985000000000,-0.0001000000000000,-0.0002970000000000,0.4550000000000000,0.0013700000000000,-0.4610000000000000,0.0014500000000000,0.0021800000000000,0.7290000000000000,0.9940000000000000
36800.0000000000000000,-0.0002340000000000,-0.0001990000000000,-0.0001640000000000,-0.0000001180000000,0.0000001500000000,0.0000921000000000,0.0001710000000000,0.0000986000000000,-0.0001000000000000,-0.0002980000000000,0.4560000000000000,0.0013700000000000,-0.4620000000000000,0.0014200000000000,0.0021800000000000,0.7300000000000000,0.9950000000000000
36900.0000000000000000,-0.0002350000000000,-0.0001990000000000,-0.0001640000000000,-0.0000001210000000,0.0000001740000000,0.0000922000000000,0.0001710000000000,0.0000987000000000,-0.0001010000000000,-0.0002980000000000,0.4570000000000000,0.0013700000000000,-0.4630000000000000,0.0014400000000000,0.0021800000000000,0.7300000000000000,0.9970000000000000
37000.0000000000000000,-0.0002350000000000,-0.0002000000000000,-0.0001650000000000,-0.0000001340000000,0.0000002410000000,0.0000922000000000,0.0001710000000000,0.0000988000000000,-0.0001010000000000,-0.0002990000000000,0.4580000000000000,0.0013800000000000,-0.4640000000000000,0.0014700000000000,0.0022000000000000,0.7310000000000000,0.9980000000000000
37100.0000000000000000,-0.0002350000000000,-0.0002000000000000,-0.0001640000000000,-0.0000001350000000,0.0000002830000000,0.0000923000000000,0.0001710000000000,0.0000989000000000,-0.0001010000000000,-0.0002990000000000,0.4590000000000000,0.0013800000000000,-0.4650000000000000,0.0015100000000000,0.0021900000000000,0.7310000000000000,0.9990000000000000
37200.0000000000000000,-0.0002360000000000,-0.0002000000000000,-0.0001640000000000,-0.0000001360000000,0.0000002370000000,0.0000923000000000,0.0001710000000000,0.0000990000000000,-0.0001010000000000,-0.0002990000000000,0.4600000000000000,0.0013800000000000,-0.4660000000000000,0.0014800000000000,0.0021900000000000,0.7320000000000000,1.0000000000000000
37300.0000000000000000,-0.0002370000000000,-0.0002010000000000,-0.0001660000000000,-0.0000001250000000,0.0000002280000000,0.0000925000000000,0.0001720000000000,0.0000992000000000,-0.0001020000000000,-0.0003010000000000,0.4640000000000000,0.0013800000000000,-0.4700000000000000,0.0014600000000000,0.0021800000000000,0.7320000000000000,1.0000000000000000
37400.0000000000000000,-0.0002360000000000,-0.0002000000000000,-0.0001640000000000,-0.0000001470000000,0.0000002230000000,0.0000927000000000,0.0001720000000000,0.0000995000000000,-0.0001010000000000,-0.0003000000000000,0.4700000000000000,0.0013900000000000,-0.4760000000000000,0.0014500000000000,0.0021900000000000,0.7320000000000000,1.0100000000000000
37500.0000000000000000,-0.0002370000000000,-0.0002010000000000,-0.0001650000000000,-0.0000001180000000,0.0000002500000000,0.0000929000000000,0.0001730000000000,0.0000997000000000,-0.0001010000000000,-0.0003010000000000,0.4750000000000000,0.0013900000000000,-0.4810000000000000,0.0015000000000000,0.0021800000000000,0.7320000000000000,1.0100000000000000
37600.0000000000000000,-0.0002380000000000,-0.0002020000000000,-0.0001650000000000,-0.0000002010000000,0.0000003540000000,0.0000930000000000,0.0001730000000000,0.0000999000000000,-0.0001020000000000,-0.0003020000000000,0.4770000000000000,0.0014000000000000,-0.4830000000000000,0.0015100000000000,0.0021900000000000,0.7330000000000000,1.0100000000000000
37700.0000000000000000,-0.0002380000000000,-0.0002010000000000,-0.0001650000000000,-0.0000000744000000,0.0000002880000000,0.0000930000000000,0.0001730000000000,0.0000998000000000,-0.0001020000000000,-0.0003010000000000,0.4770000000000000,0.0013900000000000,-0.4830000000000000,0.0015700000000000,0.0022000000000000,0.7330000000000000,1.0100000000000000
37800.0000000000000000,-0.0002400000000000,-0.0002030000000000,-0.0001670000000000,-0.0000002870000000,0.0000003680000000,0.0000931000000000,0.0001730000000000,0.0001000000000000,-0.0001030000000000,-0.0003030000000000,0.4780000000000000,0.0014100000000000,-0.4840000000000000,0.0014400000000000,0.0021800000000000,0.7330000000000000,1.0100000000000000
37900.0000000000000000,-0.0002360000000000,-0.0001990000000000,-0.0001630000000000,0.0000000018900000,0.0000002430000000,0.0000928000000000,0.0001730000000000,0.0000998000000000,-0.0000994000000000,-0.0002990000000000,0.4790000000000000,0.0014000000000000,-0.4850000000000000,0.0015500000000000,0.0022000000000000,0.7340000000000000,1.0100000000000000
38000.0000000000000000,-0.0002430000000000,-0.0002060000000000,-0.0001690000000000,-0.0000001040000000,-0.0000001360000000,0.0000932000000000,0.0001740000000000,0.0001000000000000,-0.0001060000000000,-0.0003060000000000,0.4800000000000000,0.0013200000000000,-0.4870000000000000,0.0013900000000000,0.0021200000000000,0.7340000000000000,1.0200000000000000
38100.0000000000000000,-0.0002300000000000,-0.0001930000000000,-0.0001570000000000,-0.0000004340000000,0.0000015000000000,0.0000917000000000,0.0001710000000000,0.0000987000000000,-0.0000945000000000,-0.0002920000000000,0.4800000000000000,0.0016100000000000,-0.4860000000000000,0.0017000000000000,0.0021800000000000,0.7350000000000000,1.0200000000000000
38200.0000000000000000,-0.0002040000000000,-0.0001720000000000,-0.0001410000000000,-0.0000020200000000,0.0000045300000000,0.0000795000000000,0.0001480000000000,0.0000856000000000,-0.0000873000000000,-0.0002590000000000,0.4710000000000000,0.0019300000000000,-0.4770000000000000,0.0014400000000000,0.0018000000000000,0.7360000000000000,1.0100000000000000
38300.0000000000000000,-0.0001890000000000,-0.0001620000000000,-0.0001320000000000,-0.0000000682000000,-0.0000015000000000,0.0000649000000000,0.0001230000000000,0.0000708000000000,-0.0000896000000000,-0.0002310000000000,0.4560000000000000,0.0010800000000000,-0.4610000000000000,0.0008540000000000,0.0023200000000000,0.7390000000000000,1.0000000000000000
38400.0000000000000000,-0.0001590000000000,-0.0001340000000000,-0.0001050000000000,0.0000009270000000,-0.0000030500000000,0.0000607000000000,0.0001150000000000,0.0000664000000000,-0.0000654000000000,-0.0001980000000000,0.4540000000000000,0.0012300000000000,-0.4580000000000000,0.0009570000000000,0.0026500000000000,0.7390000000000000,1.0000000000000000
38500.0000000000000000,-0.0001790000000000,-0.0001530000000000,-0.0001240000000000,0.0000006260000000,-0.0000031700000000,0.0000627000000000,0.0001190000000000,0.0000685000000000,-0.0000830000000000,-0.0002200000000000,0.4540000000000000,0.0012000000000000,-0.4590000000000000,0.0005280000000000,0.0026400000000000,0.7400000000000000,1.0000000000000000
38600.0000000000000000,-0.0001700000000000,-0.0001440000000000,-0.0001140000000000,0.0000007190000000,-0.0000033100000000,0.0000633000000000,0.0001200000000000,0.0000693000000000,-0.0000727000000000,-0.0002110000000000,0.4530000000000000,0.0011400000000000,-0.4580000000000000,0.0004710000000000,0.0026400000000000,0.7410000000000000,1.0000000000000000
38700.0000000000000000,-0.0001700000000000,-0.0001430000000000,-0.0001130000000000,0.0000006910000000,-0.0000033100000000,0.0000644000000000,0.0001220000000000,0.0000706000000000,-0.0000709000000000,-0.0002120000000000,0.4530000000000000,0.0011600000000000,-0.4580000000000000,0.0004830000000000,0.0027200000000000,0.7410000000000000,1.0000000000000000
38800.0000000000000000,-0.0001750000000000,-0.0001480000000000,-0.0001170000000000,0.0000006470000000,-0.0000031600000000,0.0000651000000000,0.0001230000000000,0.0000713000000000,-0.0000746000000000,-0.0002170000000000,0.4530000000000000,0.0011800000000000,-0.4580000000000000,0.0005880000000000,0.0027800000000000,0.7420000000000000,1.0000000000000000
38900.0000000000000000,-0.0001790000000000,-0.0001520000000000,-0.0001210000000000,0.0000006460000000,-0.0000031300000000,0.0000660000000000,0.0001250000000000,0.0000723000000000,-0.0000780000000000,-0.0002230000000000,0.4530000000000000,0.0012100000000000,-0.4570000000000000,0.0006090000000000,0.0027900000000000,0.7420000000000000,1.0100000000000000
39000.0000000000000000,-0.0001770000000000,-0.0001480000000000,-0.0001170000000000,0.0000006580000000,-0.0000032500000000,0.0000671000000000,0.0001270000000000,0.0000736000000000,-0.0000731000000000,-0.0002200000000000,0.4520000000000000,0.0011900000000000,-0.4570000000000000,0.0005150000000000,0.0028200000000000,0.7430000000000000,1.0100000000000000
39100.0000000000000000,-0.0001760000000000,-0.0001470000000000,-0.0001140000000000,0.0000006400000000,-0.0000032000000000,0.0000686000000000,0.0001300000000000,0.0000753000000000,-0.0000699000000000,-0.0002200000000000,0.4520000000000000,0.0011800000000000,-0.4570000000000000,0.0004880000000000,0.0027900000000000,0.7440000000000000,1.0100000000000000
39200.0000000000000000,-0.0001790000000000,-0.0001490000000000,-0.0001160000000000,0.0000006530000000,-0.0000033100000000,0.0000697000000000,0.0001320000000000,0.0000765000000000,-0.0000711000000000,-0.0002240000000000,0.4520000000000000,0.0011900000000000,-0.4560000000000000,0.0003960000000000,0.0028600000000000,0.7440000000000000,1.0100000000000000
39300.0000000000000000,-0.0001820000000000,-0.0001520000000000,-0.0001180000000000,0.0000006200000000,-0.0000031800000000,0.0000706000000000,0.0001340000000000,0.0000775000000000,-0.0000727000000000,-0.0002280000000000,0.4510000000000000,0.0012100000000000,-0.4560000000000000,0.0004280000000000,0.0028300000000000,0.7450000000000000,1.0100000000000000
39400.0000000000000000,-0.0001810000000000,-0.0001500000000000,-0.0001160000000000,0.0000006090000000,-0.0000031300000000,0.0000713000000000,0.0001360000000000,0.0000783000000000,-0.0000700000000000,-0.0002270000000000,0.4510000000000000,0.0012000000000000,-0.4560000000000000,0.0004500000000000,0.0029400000000000,0.7450000000000000,1.0100000000000000
39500.0000000000000000,-0.0001840000000000,-0.0001530000000000,-0.0001190000000000,0.0000005370000000,-0.0000027800000000,0.0000722000000000,0.0001370000000000,0.0000793000000000,-0.0000719000000000,-0.0002300000000000,0.4510000000000000,0.0012200000000000,-0.4560000000000000,0.0006360000000000,0.0029200000000000,0.7460000000000000,1.0100000000000000
39600.0000000000000000,-0.0001870000000000,-0.0001550000000000,-0.0001200000000000,0.0000005610000000,-0.0000029400000000,0.0000732000000000,0.0001390000000000,0.0000804000000000,-0.0000731000000000,-0.0002340000000000,0.4500000000000000,0.0012400000000000,-0.4550000000000000,0.0005460000000000,0.0030300000000000,0.7460000000000000,1.0100000000000000
39700.0000000000000000,-0.0001870000000000,-0.0001550000000000,-0.0001200000000000,0.0000005840000000,-0.0000031100000000,0.0000742000000000,0.0001410000000000,0.0000815000000000,-0.0000719000000000,-0.0002350000000000,0.4500000000000000,0.0012300000000000,-0.4550000000000000,0.0003690000000000,0.0029300000000000,0.7470000000000000,1.0100000000000000
39800.0000000000000000,-0.0001840000000000,-0.0001520000000000,-0.0001160000000000,0.0000006330000000,-0.0000034000000000,0.0000747000000000,0.0001420000000000,0.0000821000000000,-0.0000683000000000,-0.0002330000000000,0.4500000000000000,0.0012000000000000,-0.4550000000000000,0.0001700000000000,0.0029700000000000,0.7470000000000000,1.0100000000000000
39900.0000000000000000,-0.0001900000000000,-0.0001580000000000,-0.0001220000000000,0.0000005250000000,-0.0000028300000000,0.0000752000000000,0.0001430000000000,0.0000826000000000,-0.0000736000000000,-0.0002390000000000,0.4500000000000000,0.0012500000000000,-0.4550000000000000,0.0004550000000000,0.0029000000000000,0.7480000000000000,1.0100000000000000
40000.0000000000000000,-0.0001960000000000,-0.0001630000000000,-0.0001270000000000,0.0000004540000000,-0.0000024100000000,0.0000761000000000,0.0001450000000000,0.0000836000000000,-0.0000779000000000,-0.0002450000000000,0.4500000000000000,0.0012900000000000,-0.4550000000000000,0.0008100000000000,0.0030600000000000,0.7480000000000000,1.0100000000000000
40000.0000000000000000,-0.0001960000000000,-0.0001630000000000,-0.0001270000000000,0.0000004540000000,-0.0000024100000000,0.0000761000000000,0.0001450000000000,0.0000836000000000,-0.0000779000000000,-0.0002450000000000,0.4500000000000000,0.0012900000000000,-0.4550000000000000,0.0008100000000000,0.0030600000000000,0.7480000000000000,1.0100000000000000
